# GHZ S DB R 50.000000000000
0.001000000000 -0.316408576812 160.360652408458 -15.091377694873 71.753133319136 -15.022014201389 74.921661841550 0.023951045823 167.935944044816
0.012998000000 -11.240424998608 86.293634312579 -5.546488447932 11.937883728000 -5.538318822990 12.067880191076 -8.647826805017 115.683897140529
0.024996000000 -14.015111208173 62.569982667450 -5.243004814494 4.714331424164 -5.222562550334 4.997201403787 -12.274203649423 100.476942677716
0.036994000000 -14.731993984290 47.706517650488 -5.004333385598 2.451821033118 -4.986684286864 2.647440939768 -14.196512603041 89.267399519078
0.048992000000 -14.938420956019 37.115179301382 -4.881939569221 0.395478015023 -4.868779128744 0.567655533521 -15.508778561501 79.298305269990
0.060990000000 -14.995700748097 29.032540575179 -4.799276086411 -1.264340617626 -4.790486446519 -1.141395048439 -16.475163126533 70.566697878082
0.072988000000 -15.009109062081 22.412763617317 -4.744202599600 -2.931589410421 -4.735480502976 -2.817355496973 -17.218113145627 62.507485155426
0.084986000000 -15.025065301351 17.032921390716 -4.707386000414 -4.517384926617 -4.698214811975 -4.438178109304 -17.804435942744 55.662253654111
0.096984000000 -15.036602794676 12.716963250597 -4.689555133964 -5.973974281209 -4.676929100934 -5.866016647494 -18.244702887029 49.911894865468
0.108982000000 -15.037982155126 9.313271586212 -4.676638959911 -7.250946567615 -4.661972695755 -7.180272053917 -18.569471980381 45.094497685409
0.120980000000 -15.006305017350 6.450609788572 -4.657242881410 -8.397400551352 -4.645179250769 -8.383452266830 -18.790964894473 40.825826982873
0.132978000000 -14.952950402609 3.842853050049 -4.640914291561 -9.592143370973 -4.628812091393 -9.578558938322 -18.963012578065 37.012119690663
0.144976000000 -14.890492706897 1.393992735042 -4.624675184129 -10.673222893613 -4.618262938872 -10.659453476603 -19.122226745462 33.278714773237
0.156974000000 -14.851625301017 -1.245413821782 -4.618656183920 -11.800132734103 -4.615213888426 -11.777161907373 -19.258039699112 29.436986895107
0.168972000000 -14.832022272600 -3.984599960424 -4.612875725841 -13.039563190595 -4.606501918410 -12.960643160803 -19.399508872620 25.744760548746
0.180970000000 -14.840598813814 -6.479161546739 -4.611542503298 -14.242780626948 -4.598747748569 -14.171179815948 -19.556101189922 22.626552459419
0.192968000000 -14.867379992800 -8.636406031129 -4.612592602033 -15.388570859695 -4.592852414754 -15.306312319329 -19.700615470919 20.169310409734
0.204966000000 -14.883041544603 -10.402471637421 -4.611958659094 -16.438167251196 -4.588019884794 -16.382278885953 -19.817317263571 18.384478665793
0.216964000000 -14.879929379706 -11.892764911457 -4.601722462069 -17.463188871868 -4.580818072154 -17.444259490965 -19.860987259824 16.746256650750
0.228962000000 -14.850803753719 -13.260927071493 -4.589705128900 -18.539373681251 -4.576386401852 -18.533979978794 -19.886908438129 14.938717182437
0.240960000000 -14.795620696853 -14.788928949380 -4.581373573233 -19.701155826831 -4.577058593810 -19.660347870717 -19.874376543800 12.915885253208
0.252958000000 -14.740793237086 -16.493405171447 -4.579882105095 -20.777773041893 -4.578977512721 -20.682771676439 -19.891655732305 10.658787341069
0.264956000000 -14.715403328831 -18.351405755879 -4.579457475848 -21.813790827381 -4.571876890321 -21.679337064070 -19.932845738462 8.372438311375
0.276954000000 -14.727891291321 -20.216446282497 -4.574384315124 -22.891810666972 -4.563261115742 -22.685484910002 -19.986568060385 6.341456148402
0.288952000000 -14.753033847551 -21.907877426944 -4.572695831478 -23.899272691079 -4.547334820057 -23.740685611563 -20.045362075022 4.897532633230
0.300950000000 -14.771661740220 -23.330210635196 -4.564122681217 -24.872343762652 -4.534757094175 -24.759123949851 -20.067191223928 4.031223744417
0.312948000000 -14.768559137717 -24.394261453393 -4.551650226857 -25.808530944380 -4.522943624524 -25.680411060582 -20.031178787740 3.282487435412
0.324946000000 -14.732749532238 -25.593593319343 -4.539218808507 -26.904092358176 -4.521804840159 -26.897965791216 -19.996991986018 2.470234598992
0.336944000000 -14.664073419590 -26.751102577822 -4.533225133723 -28.014167195398 -4.523592795557 -27.986518999366 -19.948717066219 1.460554965815
0.348942000000 -14.587207436761 -28.105985959408 -4.528000295644 -29.117889207502 -4.534769694927 -29.054883339270 -19.905100651763 0.008910711067
0.360940000000 -14.540839357912 -29.686816209559 -4.528448655291 -30.138052560047 -4.531544795741 -30.008059688689 -19.923512426803 -1.681702501643
0.372938000000 -14.525724620341 -31.356107744533 -4.526954997235 -31.127952736238 -4.516994881833 -30.924780534738 -19.970632333697 -3.348252737278
0.384936000000 -14.547324184010 -32.942274769557 -4.516381692983 -32.103508878277 -4.490343879247 -31.925195607060 -20.005900210315 -4.649352253561
0.396934000000 -14.562769020753 -34.352226704676 -4.505105560042 -33.087890586233 -4.467517409311 -33.003245800884 -20.020908693246 -5.501019051742
0.408932000000 -14.565519424737 -35.529020059593 -4.485255563479 -34.088487159732 -4.450908517800 -34.050830303116 -19.980605256695 -6.171395087286
0.420930000000 -14.536700704752 -36.495803351818 -4.468668749122 -35.128729302295 -4.447401071312 -35.147874511782 -19.917633431486 -6.822409393176
0.432928000000 -14.471636816395 -37.472283315135 -4.454900159351 -36.278478261761 -4.453512018128 -36.311530646091 -19.837257422791 -7.629679237169
0.444926000000 -14.384088926782 -38.628365455817 -4.457514078405 -37.420225007191 -4.470977616539 -37.397248621726 -19.770231425651 -8.809033463186
0.456924000000 -14.312640876278 -39.987787710765 -4.464360556941 -38.466118077620 -4.480730373057 -38.284841737123 -19.757141792972 -10.455705582764
0.468922000000 -14.285545383021 -41.524165564961 -4.464283275816 -39.416218394794 -4.463055983430 -39.193558098742 -19.813799344593 -12.076981232206
0.480920000000 -14.282697054954 -42.992369847014 -4.456134986154 -40.382861139780 -4.430233947153 -40.099366259322 -19.866142725468 -13.562080486372
0.492918000000 -14.279514361621 -44.387749180437 -4.438879900946 -41.397263824724 -4.393755133549 -41.172373086173 -19.887580148802 -14.715250238227
0.504916000000 -14.288272871523 -45.637328019473 -4.419981030055 -42.431905443353 -4.362883761715 -42.342514916513 -19.865592155346 -15.519563194853
0.516914000000 -14.269884138002 -46.685284792521 -4.395574314612 -43.481412608751 -4.353259988631 -43.540768679363 -19.795764216120 -16.352390871204
0.528912000000 -14.220066738134 -47.665959525667 -4.379651362298 -44.640638563548 -4.357044860940 -44.735313505734 -19.699608023375 -17.135410737966
0.540910000000 -14.139172041783 -48.767630919017 -4.377258295840 -45.783568789481 -4.385285435708 -45.890114221384 -19.594468037038 -18.200601635418
0.552908000000 -14.051129266464 -50.091793797478 -4.381407966091 -46.893896255922 -4.408048073742 -46.823765118789 -19.519707289549 -19.605934920504
0.564906000000 -13.996156078037 -51.577779928543 -4.391958138787 -47.909011666726 -4.402996325486 -47.676935737491 -19.498740321949 -21.129616054269
0.576904000000 -13.962494944998 -52.951910354976 -4.385592740270 -48.843830980399 -4.368110621904 -48.566669888719 -19.538195453008 -22.614114927982
0.588902000000 -13.953714183340 -54.349678594756 -4.371765475150 -49.832420495109 -4.330496146551 -49.619717674126 -19.538608040283 -23.744727031801
0.600900000000 -13.945382866078 -55.648296098643 -4.341454850353 -50.889351706368 -4.289990810191 -50.793398799597 -19.524193871072 -24.628563408818
0.612898000000 -13.947246174310 -56.705593358974 -4.323225473131 -51.995924633720 -4.277152675700 -52.042670087360 -19.493627056484 -25.238636433966
0.624896000000 -13.908002431566 -57.633267978703 -4.305975430411 -53.176893820852 -4.279176253471 -53.303828308890 -19.406367382768 -25.930760193741
0.636894000000 -13.828726766673 -58.594431303318 -4.299830676675 -54.302955304907 -4.308113740373 -54.458139318867 -19.316969357490 -26.753618575591
0.648892000000 -13.740123967319 -59.783419571637 -4.307799431586 -55.455775183445 -4.341574780504 -55.453238532526 -19.244132204605 -27.978425919486
0.660890000000 -13.668293194452 -61.276747916769 -4.327471429507 -56.569784957754 -4.353482241935 -56.332441921853 -19.209734553718 -29.408853304761
0.672888000000 -13.624025287953 -62.703702186363 -4.331134481864 -57.494106841848 -4.330900253465 -57.189650376365 -19.218851154285 -30.629213877191
0.684886000000 -13.597935762203 -64.055552007098 -4.321675519508 -58.353550483554 -4.290997989634 -58.170748905668 -19.248553019436 -31.753110629337
0.696884000000 -13.583139146233 -65.327955960690 -4.296168809035 -59.419011687615 -4.251171548300 -59.395847388862 -19.256055169013 -32.736002920046
0.708882000000 -13.566298996596 -66.516814660301 -4.272640963383 -60.504191629403 -4.233556679440 -60.699710468635 -19.236755535496 -33.462035130584
0.720880000000 -13.537353678099 -67.378675750372 -4.249368650814 -61.631050616326 -4.240729311244 -61.985276387399 -19.163796824328 -34.189236781105
0.732878000000 -13.481900181931 -68.164861052570 -4.236590647605 -62.828716717821 -4.284012099131 -63.184464682779 -19.094727353364 -34.950245223728
0.744876000000 -13.403862403520 -69.113140020592 -4.251245207228 -64.050390181532 -4.335824782659 -64.136631914011 -19.043347406325 -36.016760415284
0.756874000000 -13.329578908040 -70.393172419068 -4.274608736675 -65.175379015690 -4.357230649514 -64.870190126159 -19.040140077723 -37.453936708745
0.768872000000 -13.291750241057 -71.705689880452 -4.286773391036 -66.130850656112 -4.339965108939 -65.560838616000 -19.105004622353 -39.054065257021
0.780870000000 -13.280022246594 -73.012883187637 -4.285310744486 -67.000374801823 -4.284966648999 -66.435381051850 -19.177553829704 -40.467156589926
0.792868000000 -13.264476812103 -74.278068425318 -4.268088792625 -68.012390237770 -4.221100910462 -67.559381664563 -19.204875817626 -41.693809037407
0.804866000000 -13.244784094446 -75.622565962605 -4.235982173370 -69.065920665146 -4.174731637344 -68.960509983348 -19.188896457040 -42.789439744263
0.816864000000 -13.238226069991 -76.681627410725 -4.210546880204 -70.263527916833 -4.156661293650 -70.409037112571 -19.128737944618 -43.585125995213
0.828862000000 -13.194685290157 -77.463266161226 -4.202363876132 -71.401741747581 -4.200228277215 -71.815303291325 -19.061265870427 -44.145998377433
0.840860000000 -13.115205021703 -78.344792639032 -4.207056641440 -72.650487503470 -4.268073244420 -72.909999186471 -18.962538175880 -44.977168448057
0.852858000000 -13.028796794806 -79.434695015875 -4.223821604039 -73.824665254033 -4.316427700171 -73.752231817752 -18.927293891192 -46.187915286842
0.864856000000 -12.956739908237 -80.724030544927 -4.242333607714 -74.904165492891 -4.327580166374 -74.417161045364 -18.948990265875 -47.603162054894
0.876854000000 -12.923741451478 -81.936708655940 -4.256904443145 -75.752221790101 -4.283210910065 -75.126733484634 -19.001362280609 -49.125213686599
0.888852000000 -12.919257712141 -83.223215967657 -4.255075000982 -76.633110558620 -4.218886165554 -76.050560907816 -19.055757130932 -50.370757810782
0.900850000000 -12.882838626549 -84.425560843247 -4.215813096341 -77.650670641145 -4.147320009819 -77.401199274854 -19.047830416295 -51.705529974216
0.912848000000 -12.874576284062 -85.644890327915 -4.188891250057 -78.904995076003 -4.116304747483 -78.991259734593 -19.027906920362 -52.696610243908
0.924846000000 -12.864775268650 -86.559832665135 -4.182324108322 -80.122827174649 -4.137456733937 -80.533802993794 -18.959096253665 -53.116576441912
0.936844000000 -12.802573625245 -87.282177748815 -4.176849118437 -81.333412242811 -4.218970831310 -81.758349654611 -18.875734834713 -53.831504600100
0.948842000000 -12.717660104151 -88.180943063309 -4.185814767530 -82.590890124110 -4.297179640425 -82.714110246519 -18.806222975752 -54.571017234093
0.960840000000 -12.637923362442 -89.353709904737 -4.215322983891 -83.743081619718 -4.334660976831 -83.385356363985 -18.787871323987 -55.863147948791
0.972838000000 -12.598757068568 -90.643333743298 -4.243014231781 -84.707818645903 -4.315827788240 -84.017796504521 -18.853495043295 -57.352667497167
0.984836000000 -12.583072566864 -91.704118841091 -4.248442382466 -85.488679992596 -4.254263654971 -84.724215266088 -18.923934889676 -58.682779948156
0.996834000000 -12.566250679990 -92.789990140134 -4.224053692214 -86.360620200471 -4.173697013139 -85.818953564877 -18.971962636776 -59.893155255145
1.008832000000 -12.550811813676 -94.000987222256 -4.199068075967 -87.403147456540 -4.105823588138 -87.380254059411 -18.993895390547 -60.902421331939
1.020830000000 -12.554756903644 -94.970197008147 -4.173570648201 -88.633760747819 -4.098421653772 -89.087510767022 -18.958309040690 -61.756343724681
1.032828000000 -12.523232674450 -95.655010492133 -4.152116076738 -89.937051114589 -4.162226637613 -90.619234350513 -18.914729655805 -62.423998850789
1.044826000000 -12.446740561939 -96.373522919876 -4.156444944425 -91.191936881241 -4.269105453801 -91.745800111812 -18.804357965049 -63.172918954249
1.056824000000 -12.356803603706 -97.384256628408 -4.188938979890 -92.410143521274 -4.359340080401 -92.443718969289 -18.715962251603 -64.285574820667
1.068822000000 -12.298139096665 -98.618967548495 -4.220329617577 -93.527012396129 -4.376407558665 -93.024802470885 -18.688137731515 -65.662391437554
1.080820000000 -12.276254600610 -99.727047166690 -4.236024455538 -94.357856194501 -4.332998481141 -93.496886875280 -18.722786908217 -67.096495548854
1.092818000000 -12.266029950893 -100.717865921197 -4.235328708074 -95.097545048388 -4.234062659721 -94.214132095286 -18.814063519572 -68.114948461475
1.104816000000 -12.270945165628 -101.769689712303 -4.213574579749 -95.979190402974 -4.145315677876 -95.527512421122 -18.830130601198 -69.032469525429
1.116814000000 -12.249354099238 -102.956539860003 -4.181147024278 -97.164352809659 -4.093275774210 -97.315424857885 -18.818357634508 -70.124556096147
1.128812000000 -12.229500938535 -103.716118683909 -4.159947630199 -98.490037670134 -4.131657133843 -99.117414540862 -18.779057819332 -70.642548076291
1.140810000000 -12.182867921355 -104.348629826200 -4.160292224534 -99.845967741151 -4.231276780365 -100.512953085332 -18.657432780140 -71.111208072247
1.152808000000 -12.073596999780 -105.136190790112 -4.185776339640 -101.187441095912 -4.350746313801 -101.401009868497 -18.545137402475 -71.908375787049
1.164806000000 -12.002200035191 -106.155818564447 -4.208934684167 -102.374183400369 -4.416255120376 -101.877120925210 -18.475705061193 -72.770654910596
1.176804000000 -11.987793712197 -107.271486554598 -4.245469720130 -103.297792068844 -4.387851526590 -102.283725332595 -18.541262081370 -74.166946904823
1.188802000000 -11.986377340133 -108.367906332103 -4.264370728424 -103.981248584996 -4.289575440918 -102.780264005595 -18.653329505299 -75.184477380821
1.200800000000 -11.988264382391 -109.296973040094 -4.250148005985 -104.691392267180 -4.176447033841 -103.808954940050 -18.716418463909 -76.107279206132
1.212798000000 -11.970074412080 -110.634158831440 -4.208188816981 -105.683434692776 -4.086134923572 -105.535657618895 -18.728947115467 -77.119957491733
1.224796000000 -11.944915152724 -111.608736035314 -4.170976529895 -106.936448921624 -4.067083529091 -107.573280310255 -18.694507775975 -77.702586974878
1.236794000000 -11.940244518959 -112.221833676246 -4.153440987517 -108.411668544859 -4.156724002460 -109.405769634689 -18.651493669444 -77.919545246829
1.248792000000 -11.852414251496 -112.693202371550 -4.164921263240 -109.869318832623 -4.313152998751 -110.618352561339 -18.520717575020 -78.278008514677
1.260790000000 -11.751225423380 -113.425842239447 -4.193188992355 -111.162994585863 -4.458451114053 -111.300041731104 -18.443200645417 -79.013936902749
1.272788000000 -11.672509427296 -114.671841211700 -4.230132714185 -112.238129094834 -4.486712885042 -111.517394840938 -18.484442197442 -80.347058389629
1.284786000000 -11.675367585896 -115.608101006157 -4.269840626029 -113.099462751363 -4.406130503726 -111.660388886236 -18.550653447856 -81.583108539914
1.296784000000 -11.719001934599 -116.524751972072 -4.281078086253 -113.711108642011 -4.291217139906 -112.293042453462 -18.675525779088 -82.576249984314
1.308782000000 -11.703016712651 -117.495554435862 -4.249084352871 -114.414182221334 -4.165071272886 -113.654516600529 -18.721933613588 -83.482443053462
1.320780000000 -11.658545456277 -118.632120272629 -4.214056872570 -115.536653040722 -4.084256631192 -115.702621898666 -18.724766570968 -84.303296430975
1.332778000000 -11.672974429065 -119.568626998744 -4.184541160843 -116.954222941819 -4.135174970880 -117.875259628850 -18.746729190630 -85.041759363846
1.344776000000 -11.600868499804 -120.073752698732 -4.189124830020 -118.423257259581 -4.290548679525 -119.557110271789 -18.610841072497 -85.599963972764
1.356774000000 -11.508178953884 -120.742661332430 -4.200482200359 -119.857925727151 -4.479886930864 -120.395549033020 -18.501328281995 -86.247328905643
1.368772000000 -11.397325746613 -121.851014897918 -4.256200707819 -120.998613204374 -4.590812360488 -120.563996281291 -18.464345112983 -87.473410408427
1.380770000000 -11.378963542846 -122.865535057515 -4.301025252984 -121.955853639105 -4.563009651879 -120.523888097828 -18.459170900103 -88.736279122815
1.392768000000 -11.436701494274 -123.507180318053 -4.310603450849 -122.498738264510 -4.444781670826 -120.726634378954 -18.575395257896 -89.709595855700
1.404766000000 -11.431463253879 -124.408205282671 -4.284073241546 -123.113756917147 -4.298941720484 -121.705866718581 -18.644351882367 -90.529851763156
1.416764000000 -11.394953478599 -125.507655516383 -4.241050211379 -124.070313981409 -4.172925086147 -123.405029537158 -18.636131082017 -91.247643325957
1.428762000000 -11.380782823533 -126.590126907326 -4.203409807425 -125.453288341538 -4.160403607284 -125.664516893007 -18.658548943978 -92.061401391198
1.440760000000 -11.349491216042 -127.166204050824 -4.171753346054 -127.033637032344 -4.265697210836 -127.669991343437 -18.568287497391 -92.403525360088
1.452758000000 -11.255332486832 -127.553803769542 -4.180982003508 -128.606271447198 -4.460475576381 -128.780603118530 -18.455121860850 -92.795844822307
1.464756000000 -11.138747780081 -128.526274647273 -4.245204396650 -129.963277444232 -4.596598800159 -129.056596201226 -18.399306187791 -93.677186086374
1.476754000000 -11.114536250652 -129.384432066318 -4.314829588091 -130.949082730847 -4.608232285989 -128.947475842179 -18.388156071771 -95.064242106995
1.488752000000 -11.188975319653 -130.327821030822 -4.360285035156 -131.664404810219 -4.494893731212 -129.186156908996 -18.547827584435 -96.129981807762
1.500750000000 -11.215577588653 -131.109295297715 -4.368769487077 -132.096427748915 -4.323905486491 -129.880138765806 -18.680992191651 -96.626665967020
1.512748000000 -11.162579279348 -132.262525230457 -4.336687672378 -132.723571871337 -4.159466048904 -131.523838448719 -18.692504327944 -97.405408911737
1.524746000000 -11.113875621378 -133.654492628012 -4.272011937444 -133.808277108976 -4.097181679156 -133.837113866735 -18.688472407013 -98.130008521658
1.536744000000 -11.088307106272 -134.547932393117 -4.211713802491 -135.299694342256 -4.191927413618 -136.272885650278 -18.650343027978 -98.943596612201
1.548742000000 -11.037415497806 -134.797068260725 -4.209649783774 -136.975427919321 -4.411694355973 -137.890961185940 -18.547360771082 -99.013078123111
1.560740000000 -10.892010252763 -135.529047071011 -4.246967985023 -138.573389777845 -4.624500715022 -138.269182946307 -18.433532107570 -99.620155837352
1.572738000000 -10.827043732276 -136.453387274185 -4.321101574255 -139.782666292460 -4.707076471196 -137.979191107810 -18.425661663177 -101.002084189507
1.584736000000 -10.882229574433 -137.302638227784 -4.382332410541 -140.581741144681 -4.617871343288 -137.804620596632 -18.544345742715 -102.218822112414
1.596734000000 -10.941975564423 -138.069811326826 -4.432641344185 -141.154690065842 -4.430832221243 -138.266438116216 -18.719882758941 -103.133157038318
1.608732000000 -10.904389109305 -138.905944130439 -4.414797030646 -141.553664202570 -4.219823307301 -139.521527134662 -18.744929051955 -103.662308135733
1.620730000000 -10.819489351662 -140.114212107184 -4.353800448860 -142.287746886001 -4.098849519468 -141.716180152174 -18.704078721675 -104.184943911266
1.632728000000 -10.792597853194 -141.259882198152 -4.278865026897 -143.553643162907 -4.121813952951 -144.364282427556 -18.690972635606 -104.952906812680
1.644726000000 -10.775425152988 -141.774333769190 -4.249357109107 -145.255977566451 -4.320118055886 -146.548160227347 -18.648230138154 -105.112495732897
1.656724000000 -10.673647171076 -142.175666555867 -4.261523178728 -146.986514358625 -4.597639495507 -147.446791831309 -18.523390453186 -105.503717969219
1.668722000000 -10.564809824939 -142.974113770131 -4.334043850527 -148.433640302424 -4.769142896725 -147.063563837813 -18.487728781675 -106.752537870536
1.680720000000 -10.601538542655 -143.901568750730 -4.411743039204 -149.425900320907 -4.739995002073 -146.573291667489 -18.609338298652 -108.041422019251
1.692718000000 -10.655703054416 -144.620651875476 -4.464346681922 -150.118844662355 -4.552608608691 -146.793887864951 -18.788270849248 -109.244661846120
1.704716000000 -10.649932667340 -145.303075141143 -4.463421743564 -150.583330981801 -4.316582677735 -147.706072246656 -18.854447158368 -109.830095351513
1.716714000000 -10.568320138435 -146.492238971378 -4.418498794148 -151.093508107348 -4.121981436372 -149.663191938899 -18.834849326050 -110.289909548043
1.728712000000 -10.501884775822 -147.854587439192 -4.351106303832 -152.078281137162 -4.076159674690 -152.418252328412 -18.791071729488 -111.258802855668
1.740710000000 -10.502446616231 -148.581708513584 -4.303403410410 -153.664617957481 -4.240073720967 -155.047634811306 -18.754698464302 -111.649262317606
1.752708000000 -10.440497553824 -148.905659474262 -4.299561095679 -155.440199937387 -4.545402962559 -156.475589442232 -18.664621774830 -111.955609802569
1.764706000000 -10.310516914758 -149.605888525339 -4.352606844985 -157.064911186144 -4.805178391515 -156.356245927251 -18.517118286322 -113.000191549574
1.776704000000 -10.281375022856 -150.546081150533 -4.442400610410 -158.235430858027 -4.857064624983 -155.580002165987 -18.602052266865 -114.103349012239
1.788702000000 -10.352715010587 -151.193493448564 -4.509192067781 -159.036697397283 -4.706784589022 -155.341542035643 -18.792418309729 -115.205157830185
1.800700000000 -10.398882450274 -151.549883859829 -4.527173222127 -159.509466923342 -4.458294105748 -155.842446422392 -18.912034829596 -115.608338873811
1.812698000000 -10.318983791272 -152.526951463617 -4.519533882852 -159.979364594009 -4.211294448357 -157.509300746199 -18.940989999338 -116.139111419125
1.824696000000 -10.235824700878 -153.855940830099 -4.451203457865 -160.699687352189 -4.103744881137 -160.110808340984 -18.881748734496 -117.204167267394
1.836694000000 -10.226386917528 -154.988867451168 -4.379451508506 -161.959605424996 -4.196815003079 -162.996889036231 -18.843129890297 -117.947770406829
1.848692000000 -10.210452511695 -155.496961631681 -4.347466808432 -163.642196807481 -4.498509069781 -164.822731450012 -18.780898114677 -118.432076918976
1.860690000000 -10.107664841721 -155.971766654854 -4.385890698148 -165.384918458169 -4.797606899739 -165.158834925832 -18.631220215372 -119.345039845764
1.872688000000 -10.045235675329 -156.753960722235 -4.467030953104 -166.775380647797 -4.909643852484 -164.385816846114 -18.618433760979 -120.535844867645
1.884686000000 -10.105997384685 -157.497364054557 -4.539403482347 -167.783682364027 -4.793104838121 -163.722160020469 -18.777052225390 -121.402695123864
1.896684000000 -10.151443720005 -157.812888994279 -4.577570529896 -168.349783921000 -4.544475060694 -164.117224747342 -18.962674771651 -121.968570179690
1.908682000000 -10.086084149329 -158.517223962616 -4.572836093845 -168.816968418287 -4.254236174783 -165.404797290149 -18.974627274994 -122.383249316224
1.920680000000 -9.980478507697 -159.822045506644 -4.506505857827 -169.356529218464 -4.067933362222 -168.001827846144 -18.885392748301 -123.287658599708
1.932678000000 -9.981638101344 -161.087759301234 -4.423489067017 -170.466431325178 -4.103064998280 -171.181426512926 -18.822443340546 -124.177122877547
1.944676000000 -10.011658554004 -161.678348060566 -4.377912383970 -172.143514749514 -4.371938529009 -173.803153863365 -18.780124382744 -124.382241388794
1.956674000000 -9.927107617174 -162.077547643442 -4.402785535331 -173.997515004074 -4.736068949565 -174.714836282208 -18.623795472527 -124.743709051408
1.968672000000 -9.829916076093 -162.983608544442 -4.498461723194 -175.578302791011 -4.960963699550 -174.001346107387 -18.566540458117 -125.839616731992
1.980670000000 -9.868703592199 -163.852612763080 -4.595646080453 -176.711509236457 -4.932880301413 -172.952704730246 -18.742906082197 -126.761639437005
1.992668000000 -9.936259051313 -164.214898254620 -4.661374722027 -177.362665917715 -4.715229257342 -172.779231165831 -18.951740389028 -127.486817946337
2.004666000000 -9.898165458026 -164.695853363343 -4.664967869051 -177.737546471829 -4.412565162479 -173.723557061669 -19.013104297292 -127.797575733423
2.016664000000 -9.772084462777 -165.840059747725 -4.609073984552 -178.093065449967 -4.157913612562 -175.932831058037 -18.927364719788 -128.430524768109
2.028662000000 -9.731480940370 -167.211593773564 -4.514375996792 -178.880351587003 -4.099861672027 -179.073859528638 -18.858830761672 -129.487433130556
2.040660000000 -9.782217904967 -168.118117381822 -4.447345945289 179.683768179585 -4.296398454800 178.143153833745 -18.829624545957 -130.049060105609
2.052658000000 -9.748510962146 -168.431268008180 -4.444944970768 177.797830685247 -4.651410034124 176.465385690721 -18.745099280169 -130.351970808850
2.064656000000 -9.647926904339 -169.018683609991 -4.511395447326 175.909389658805 -4.947281730346 176.760208279372 -18.625914486214 -131.035626078484
2.076654000000 -9.650704653646 -169.913272350518 -4.618536998253 174.563604534028 -5.006597072824 177.940702520912 -18.733951894775 -131.972527838678
2.088652000000 -9.713551026896 -170.440396234053 -4.706033336777 173.771242295014 -4.817134009227 178.457349453860 -18.950987265129 -132.413767018170
2.100650000000 -9.698062867063 -170.771152668842 -4.739262419176 173.333313793960 -4.506760662345 177.864309381284 -19.035602777280 -132.485073044058
2.112648000000 -9.583559403855 -171.686780122936 -4.719954948827 173.039372972975 -4.239991239315 175.833650448390 -19.043698228700 -132.835391596592
2.124646000000 -9.526312782550 -173.050940440787 -4.638284407758 172.540496293442 -4.131218573936 172.837805877060 -18.986733290851 -133.887784801050
2.136644000000 -9.567114952029 -174.259393068597 -4.565915377340 171.282605338682 -4.267998380115 169.768894737022 -18.948817455935 -135.064007357893
2.148642000000 -9.583394101975 -174.753390267123 -4.521582635520 169.550063671198 -4.610396064930 167.787194440779 -18.893204121673 -135.741917486342
2.160640000000 -9.504855634059 -175.226578467287 -4.559515675459 167.565919747023 -4.933527620796 167.915529583119 -18.796860351125 -136.195334500688
2.172638000000 -9.498509017408 -175.967866195826 -4.651899203801 166.041301783303 -5.027254744115 169.147619839401 -18.807971432776 -136.957916917927
2.184636000000 -9.567260941072 -176.533615397245 -4.754504226642 165.178525263037 -4.879039076605 169.882289371656 -19.009580504777 -137.402012223917
2.196634000000 -9.538500117230 -176.960390868471 -4.799608990873 164.523465229549 -4.575337809286 169.567435730639 -19.197752230545 -137.489503359674
2.208632000000 -9.424224125590 -177.782653415592 -4.792986529337 164.224624778789 -4.249980147984 167.750790985103 -19.209158981151 -138.018662555556
2.220630000000 -9.343696152782 -179.116709083054 -4.727985014903 163.880566878065 -4.083169857037 164.777551996612 -19.131860826416 -139.142207865111
2.232628000000 -9.384532599094 179.569037972066 -4.635120795494 162.940670431225 -4.164225987626 161.383311964663 -19.041930240190 -140.599844469444
2.244626000000 -9.444351926231 178.924951024884 -4.584918149238 161.244935175183 -4.485902699579 158.888017202405 -19.004066990212 -141.242934087189
2.256624000000 -9.390811033972 178.464702274350 -4.592640175604 159.275960211825 -4.854884828256 158.450210410415 -18.878765299469 -141.454121886806
2.268622000000 -9.352909362947 177.789686541224 -4.670650916554 157.598272833772 -5.044757727284 159.474694416613 -18.867165673707 -142.080970774882
2.280620000000 -9.381348624667 177.193150611114 -4.780053253255 156.576578435146 -4.951833258381 160.590749654574 -19.024754387521 -142.355298943777
2.292618000000 -9.379335005735 176.716592850791 -4.864386827442 155.814306831720 -4.660090972118 160.697752611094 -19.201038019704 -142.137296167267
2.304616000000 -9.261662237591 176.000014907719 -4.859846307296 155.507400670546 -4.321433717320 159.182550215823 -19.273219300958 -142.451173272608
2.316614000000 -9.186196572494 174.737646651966 -4.804189895452 155.232419937189 -4.114299401547 156.296900059115 -19.216902887743 -143.892249700406
2.328612000000 -9.221772860445 173.348042835097 -4.722992626654 154.367201114332 -4.165304398100 152.748861172673 -19.187965213146 -145.390390790821
2.340610000000 -9.300468244949 172.680410536878 -4.649385551186 152.794327060945 -4.457663546740 150.007801485611 -19.180010366087 -146.263294695863
2.352608000000 -9.278944664009 172.406200065647 -4.630661934929 150.939737211372 -4.865897019703 149.296032106469 -19.049252913665 -146.574243907450
2.364606000000 -9.229888585703 171.870284036558 -4.714545708689 149.272546485139 -5.133128597856 150.346531654287 -19.001418742260 -146.999256651799
2.376604000000 -9.254080519368 170.971901827323 -4.823198115548 147.892863227225 -5.083674115967 151.859809080867 -19.111986080230 -147.298466624862
2.388602000000 -9.266435847636 170.504906719485 -4.905920197876 147.069057730025 -4.796875444153 152.351053166430 -19.271025127887 -147.262671229112
2.400600000000 -9.168648483429 169.939219232375 -4.907337517642 146.751282871912 -4.419430357172 151.289313651099 -19.347383250750 -147.089819653964
2.412598000000 -9.073707200606 168.599320241388 -4.873497519974 146.537675637647 -4.132675253661 148.526318082709 -19.342771010820 -148.016491741243
2.424596000000 -9.094072231585 166.996907343754 -4.778917775315 145.734796146916 -4.091579313118 144.739424336999 -19.368154016646 -149.805793829674
2.436594000000 -9.175194542280 166.382122900846 -4.693905632736 144.345065853687 -4.329806581660 141.570099129378 -19.428707745610 -150.876620654946
2.448592000000 -9.177474747800 166.243844537222 -4.671597110203 142.636789086745 -4.743842268845 140.115628642605 -19.321749174707 -151.362851107130
2.460590000000 -9.110173141105 165.882014287649 -4.736170630306 140.752812256086 -5.094568313923 140.786242519859 -19.182499401442 -151.710003906806
2.472588000000 -9.142408702169 165.027997464728 -4.853152531935 139.176637546892 -5.136028259532 142.305647570536 -19.180398475575 -152.032467107479
2.484586000000 -9.156771869608 164.466814115033 -4.956459869596 138.293853290279 -4.901000862075 143.212697455204 -19.300926495396 -151.647464915873
2.496584000000 -9.074993704546 163.926917022972 -4.994017484956 138.090653737894 -4.516461537107 142.435750960171 -19.370258425086 -151.056134892834
2.508582000000 -8.984424471654 162.540177555131 -4.976233544615 137.823331743888 -4.194889660326 139.925981065114 -19.422756626975 -151.510337694016
2.520580000000 -9.023464548180 160.795429815120 -4.883658894547 137.155556842282 -4.118532057371 136.241679775089 -19.550472992973 -153.337515933415
2.532578000000 -9.111501604014 160.066929235686 -4.771789312978 136.003830693373 -4.325517403215 132.687142604269 -19.658907527059 -154.687784373801
2.544576000000 -9.127107624822 160.043723441172 -4.718005810090 134.370698935396 -4.749581253672 130.850523508229 -19.613986002183 -154.901795119759
2.556574000000 -9.049544257978 159.822384994006 -4.749800021420 132.231605868224 -5.155282435056 131.291539870432 -19.466770268094 -155.382788242611
2.568572000000 -9.031618433744 158.991944401831 -4.851288616669 130.578839606916 -5.270259103745 133.033894810516 -19.382557068688 -155.710593058348
2.580570000000 -9.076818539103 158.263073108666 -4.978064715470 129.598481051901 -5.078002222667 134.357541444814 -19.511893319251 -155.470736187816
2.592568000000 -9.023797923709 157.652672061742 -5.051999428531 129.163750421823 -4.678421283381 134.151229922107 -19.611160351975 -154.903221628460
2.604566000000 -8.919498930547 156.412120639997 -5.037436156879 128.823850478943 -4.293745604402 131.885927284235 -19.725392278233 -155.389849990997
2.616564000000 -8.922940940887 154.677372556656 -4.955742649084 128.356264434696 -4.126375165941 128.164853641946 -19.881888220384 -157.148164512681
2.628562000000 -9.032195350760 153.695245943060 -4.831752439284 126.952416682096 -4.276082591887 124.307094905022 -20.007310476627 -159.447422270344
2.640560000000 -9.059908697306 153.786444723102 -4.769543277596 125.871555616084 -4.695360101060 122.066320236288 -20.047902082360 -158.852177992618
2.652558000000 -8.976993131154 153.727986102168 -4.786954025051 123.739071580344 -5.136422897591 121.929936809972 -19.811800187476 -159.294411272605
2.664556000000 -8.968211700697 152.754273461379 -4.880408247262 121.886604799086 -5.317960925438 123.703483261975 -19.716149630250 -159.936882509932
2.676554000000 -9.011928865773 151.981135249624 -5.030523739282 120.661414639315 -5.152630622437 125.526021188005 -19.818186685156 -160.062016320745
2.688552000000 -9.009372605311 151.454368203975 -5.132320475762 120.189374719859 -4.767006462017 125.620228152311 -19.880817498535 -159.530977494106
2.700550000000 -8.882482933703 150.190845259175 -5.142487730254 119.966905402654 -4.322319144003 123.710327639352 -19.896485947494 -159.908879479968
2.712548000000 -8.866257839914 148.182453841764 -5.067681330304 119.678363102120 -4.084236716180 120.015364644617 -20.009457737900 -161.475024035283
2.724546000000 -8.988711999315 147.013862703242 -4.952249474408 118.966601746220 -4.154421605849 115.889598121379 -20.231224007045 -162.905813269545
2.736544000000 -9.066009655097 147.084698789714 -4.842895461485 117.446832135904 -4.557119733266 112.680332510259 -20.353926437534 -162.767424061027
2.748542000000 -8.988425329674 147.168412135341 -4.803560976873 115.402348970847 -5.054837305750 111.864592189862 -20.177117933049 -162.820931549774
2.760540000000 -8.902482024601 146.477000742766 -4.881325352276 113.359267872194 -5.374271657069 113.201030052125 -19.945692862487 -163.717849828629
2.772538000000 -8.958499619815 145.596254366787 -5.053562805648 111.895129827284 -5.318953585466 115.304941034994 -19.962473622405 -164.155552657214
2.784536000000 -8.977630320186 144.946765369628 -5.192029996907 111.131527733761 -4.970301923679 116.048301170330 -20.003388402878 -163.731655468758
2.796534000000 -8.892420626844 143.889681958325 -5.245271368310 110.943454074546 -4.534656883034 114.784891015420 -19.976850686425 -163.125710552189
2.808532000000 -8.841164197025 142.005122412657 -5.185765378298 110.823017290045 -4.225494225036 111.457032926972 -20.050920404634 -163.711407030753
2.820530000000 -8.983870862353 140.563817224758 -5.070343617568 110.273807646753 -4.216588103666 107.286411774427 -20.314584424129 -164.614470970133
2.832528000000 -9.092523063807 140.536147695010 -4.928753144692 109.089964529057 -4.567494898953 103.834003252679 -20.532146891265 -164.306520362186
2.844526000000 -9.037000614271 140.744843190114 -4.841154461813 107.188877327233 -5.055623438252 102.445821103697 -20.460005981499 -163.854491674415
2.856524000000 -8.907620346504 140.042309824486 -4.874207934565 104.949779594376 -5.434729846639 103.488856231407 -20.245367806802 -164.462198004448
2.868522000000 -8.923832264004 138.883140111898 -5.034101897697 102.980759472088 -5.469002314767 105.712709662050 -20.267870636650 -165.293070493966
2.880520000000 -8.987425398354 138.149855987590 -5.207243787500 101.854175234181 -5.157131627606 106.849115815954 -20.364576120496 -164.969895681039
2.892518000000 -8.906723456701 137.324286811842 -5.329056604549 101.611585616278 -4.680747933556 106.015981993203 -20.426014680620 -164.043138862196
2.904516000000 -8.827679455918 135.687092902897 -5.322944975208 101.638938692940 -4.312451292689 102.866638420649 -20.555190097130 -164.191785016268
2.916514000000 -8.933432678008 134.050175467515 -5.235250380447 101.366365792157 -4.233257800022 98.639336053744 -20.861642768055 -164.944227349253
2.928512000000 -9.090266763925 133.945354869941 -5.078491351157 100.538871178152 -4.515311758499 94.566643009131 -21.244546408672 -165.101718193810
2.940510000000 -9.089898223676 134.374824758312 -4.953484766833 98.990032018262 -5.022384765315 92.471519966775 -21.137420256330 -165.056031413073
2.952508000000 -8.966070069939 133.823689458802 -4.939422869448 96.675079247701 -5.509770377688 93.039945063041 -20.908308901047 -165.948289376277
2.964506000000 -8.931066605426 132.499901954282 -5.029385480219 94.379460580997 -5.679848969960 95.351802223844 -20.841908531078 -167.772784088088
2.976504000000 -9.024338691332 131.548034826307 -5.228113255541 93.103613301043 -5.449960297153 97.185790154216 -20.912198711640 -168.170818550000
2.988502000000 -9.018665690052 130.903152858762 -5.392911100129 92.628642964777 -4.985015864320 97.181601140012 -20.899446535132 -167.460407684874
3.000500000000 -8.915559687460 129.262636801954 -5.435833187213 92.419062786452 -4.534414151665 94.609167818825 -20.963797010023 -167.185111444702
3.012498000000 -8.962296833004 127.474763067480 -5.371171770722 92.372228740864 -4.329896965895 90.552698222743 -21.153609512608 -168.030205652166
3.024496000000 -9.138372673104 127.037866007323 -5.228381962727 91.951342540855 -4.524267183943 86.381487129194 -21.432759390977 -168.076559673810
3.036494000000 -9.190009926494 127.638740366818 -5.073977710517 90.670052812541 -4.989612908718 83.648886640150 -21.504694169586 -167.124907785859
3.048492000000 -9.065359315930 127.437225685591 -4.981622093499 88.523838549221 -5.479105291582 83.451947001578 -21.219889882628 -167.794473509813
3.060490000000 -8.984694576499 126.148648144537 -5.016683940947 86.156636225202 -5.753241611709 85.405495363118 -21.066590255895 -169.438135880976
3.072488000000 -9.071923921954 124.869655015376 -5.192432399692 84.263120036597 -5.610301320849 87.517661192418 -21.123798973578 -170.045408231214
3.084486000000 -9.121064854654 123.979409423015 -5.401053277794 83.138509743669 -5.198006579972 88.007070788620 -21.122986100642 -169.357315310158
3.096484000000 -9.067682260986 122.673512820526 -5.514590573990 82.980105657291 -4.745011411127 85.975438065920 -21.028083015685 -168.815553045414
3.108482000000 -9.065503583086 120.888615966582 -5.496302255511 83.063175988864 -4.462858814123 82.077106200146 -21.217789479067 -169.193322253892
3.120480000000 -9.210564634877 119.935278442151 -5.362468744944 82.767875986729 -4.580698178337 77.769806265852 -21.461707474954 -168.760515385778
3.132478000000 -9.267490959823 120.391522793237 -5.194950465626 81.876998515441 -4.992058061287 74.519021988504 -21.564498152053 -167.096681202189
3.144476000000 -9.133890202109 120.490850673022 -5.073551566147 80.121659586313 -5.529941373633 73.626704417639 -21.382298548955 -166.141070218088
3.156474000000 -9.003497716022 119.392838625667 -5.063499047992 77.717297750899 -5.893668496815 75.001173159894 -21.269922403939 -167.133214341762
3.168472000000 -9.069013310379 117.947913744464 -5.190911023579 75.470875128556 -5.878347554919 77.235004253890 -21.445718229511 -167.964389808578
3.180470000000 -9.194618005954 117.075441159626 -5.416565004872 74.032890805663 -5.547362728096 78.365682430745 -21.672061904560 -167.567699610713
3.192468000000 -9.199413004611 116.007798946118 -5.578295516732 73.445435802206 -5.085612019541 77.366371210400 -21.636839287283 -167.204552055020
3.204466000000 -9.174714257629 114.143246584791 -5.625631526903 73.451194530537 -4.735501841780 74.042624612666 -21.721150462379 -167.147562023490
3.216464000000 -9.273326350102 112.835245122749 -5.554293260069 73.465264103303 -4.727190624713 69.785840917138 -22.024725932731 -167.212732812956
3.228462000000 -9.371971376949 113.012272975032 -5.402875592315 72.922033183814 -5.046542627944 66.176311102439 -22.174901301799 -165.634100868112
3.240460000000 -9.266167784973 113.123002610113 -5.230180676736 71.591033376178 -5.529073655334 64.600220235245 -22.116565309144 -164.115861241372
3.252458000000 -9.084862259722 112.249246903526 -5.151151616080 69.458765563208 -5.941814904399 65.394391943014 -21.990502864959 -164.796095998876
3.264456000000 -9.104029265967 110.838258598787 -5.215095051369 67.137452488271 -6.019093356029 67.451337201044 -22.195120457808 -165.953589340697
3.276454000000 -9.243222058975 109.797587905952 -5.399847938445 65.180944124710 -5.775394573259 68.788217676100 -22.565183461815 -166.071458516645
3.288452000000 -9.292885219983 108.785262182931 -5.593349176686 64.244823794696 -5.344801380784 68.172626956103 -22.701097393543 -165.538167036044
3.300450000000 -9.269564784806 107.262883079011 -5.714804188879 64.073269659806 -4.968660914368 65.442954493692 -22.651073093437 -166.584849041879
3.312448000000 -9.331367009093 105.602009118935 -5.701177826369 63.976329798372 -4.878459740870 61.286523135917 -22.896371111821 -166.789271079671
3.324446000000 -9.434221954928 105.281225286305 -5.585478136188 63.674937489264 -5.136327779192 57.572793391724 -23.111118956350 -166.469818235433
3.336444000000 -9.346715474977 105.207521711467 -5.428069698231 62.769385542994 -5.597776279450 55.594193179088 -23.053969839959 -166.016617550830
3.348442000000 -9.162584535512 104.574220099749 -5.311072963976 60.953832089780 -6.031964386998 55.888769360778 -22.839960621063 -166.686237784943
3.360440000000 -9.120126118929 103.198648197664 -5.309776035909 58.778515273163 -6.193216196268 57.754781867280 -22.868461551366 -168.032553082268
3.372438000000 -9.252111083585 101.984760923889 -5.449003334145 56.597611650266 -6.022730678867 59.297879109896 -23.156369151626 -168.739626577370
3.384436000000 -9.346713694787 101.112465035893 -5.641088790906 55.292927399028 -5.636828643870 59.232758378463 -23.278177448062 -167.899525493760
3.396434000000 -9.340373304636 99.687723021193 -5.800898624559 54.695198302718 -5.263888538089 57.022319755933 -23.268124781342 -167.947215388110
3.408432000000 -9.363989876167 98.161087796760 -5.841219694855 54.578525809258 -5.095115822524 53.144508539793 -23.270650129285 -168.129313667219
3.420430000000 -9.467778775384 97.417479851722 -5.776818278317 54.397444354164 -5.261306275021 49.323327099866 -23.497238653390 -167.438151236166
3.432428000000 -9.445080303466 97.217334699645 -5.644944120567 53.726775775764 -5.666779969227 46.967810715842 -23.488286145499 -166.753860679397
3.444426000000 -9.274560282801 96.728850213218 -5.503372111373 52.373229328126 -6.122860662997 46.544497198253 -23.287077867005 -166.403581202669
3.456424000000 -9.209151950743 95.332326805256 -5.454116501228 50.279189842142 -6.350771904376 47.964937498406 -23.271183895547 -167.113624287708
3.468422000000 -9.316263204028 94.171028219754 -5.528618333984 48.272848088553 -6.273482656594 49.527029843072 -23.476018186705 -167.009347628884
3.480420000000 -9.465841952989 93.055642167137 -5.693476260358 46.518729741027 -5.972972882347 49.812129521651 -23.711697474164 -166.002596347693
3.492418000000 -9.483316713315 91.818866496364 -5.859866730408 45.474096356991 -5.635538055338 48.250921446070 -23.844306360444 -164.743703044866
3.504416000000 -9.477400191767 90.075931810851 -5.952563127564 45.082337017932 -5.437659654043 44.965325244193 -23.946729913533 -165.033229388410
3.516414000000 -9.524523841949 88.827087822519 -5.965977275917 44.948687614826 -5.533304487301 41.412439851302 -24.074624521977 -164.899461300675
3.528412000000 -9.476808997826 88.348470124281 -5.871700575302 44.453455892769 -5.845609081838 38.853293543731 -24.202987084493 -164.516593444800
3.540410000000 -9.355369276204 87.854878621614 -5.744535795280 43.443294725799 -6.254458812776 38.130034165862 -24.117556710136 -164.535493260146
3.552408000000 -9.225669290815 86.724620693326 -5.669389938528 41.847946115719 -6.504121396876 38.959984411888 -24.070463193374 -164.701482934001
3.564406000000 -9.304825020701 85.628373304230 -5.676981330991 39.826797298815 -6.468145059320 40.351182879453 -24.410623960110 -164.575060319399
3.576404000000 -9.439657899475 84.799173376998 -5.789706130478 38.038383912273 -6.211507355272 40.737850653172 -24.673204286034 -162.958201636075
3.588402000000 -9.513014133858 83.543643899571 -5.960496382017 36.773844557630 -5.885946563861 39.378140169364 -24.814939428639 -161.890548429353
3.600400000000 -9.507457332875 82.042262993749 -6.069193647062 35.995334504222 -5.680047917552 36.508017326255 -25.069606350097 -161.983304535070
3.612398000000 -9.547218018833 80.621775156842 -6.116319376852 35.667207614157 -5.742779858744 33.123008655069 -25.211741349516 -163.016412406646
3.624396000000 -9.520863604750 79.760585678818 -6.064031922729 35.290279182105 -6.039862606673 30.429086966570 -25.342787158418 -162.754538939289
3.636394000000 -9.394216354275 79.082820772731 -5.977120445861 34.317248204417 -6.434561414697 29.497855257068 -25.258755418160 -162.894694694905
3.648392000000 -9.259308252230 78.079456622796 -5.886013065314 33.051897875698 -6.711160544848 30.198514669306 -25.237670423964 -163.470372040734
3.660390000000 -9.286313020186 76.958809165295 -5.858297835244 31.331393515740 -6.739029770357 31.346681452888 -25.280207321474 -163.764407320166
3.672388000000 -9.435294631960 75.948548681055 -5.924943086819 29.469635216732 -6.518527346583 32.097395562217 -25.552490286296 -162.976747772922
3.684386000000 -9.515971423644 75.084598254309 -6.052758734779 27.933910248373 -6.198202262755 31.243699047943 -25.728160478828 -160.657360013637
3.696384000000 -9.556849119834 73.611283570885 -6.180835876958 27.058016817604 -5.977751766141 28.777116721262 -25.833011457003 -160.153574031760
3.708382000000 -9.568159989683 72.049578501518 -6.255998627535 26.466176205144 -5.969928041950 25.714875751239 -26.015903013846 -160.636551944970
3.720380000000 -9.558571998037 70.887493405794 -6.269861515824 26.067024730690 -6.165290446458 23.040923946900 -26.107406437540 -160.643451226207
3.732378000000 -9.460689496754 69.815095087013 -6.195346313410 25.371801834284 -6.498793675040 21.657563723457 -26.174345931955 -159.856146609824
3.744376000000 -9.339926015882 68.683207735019 -6.103218941033 24.133611792218 -6.756149384311 21.868270293485 -26.137980506312 -160.033548380975
3.756374000000 -9.337568571961 67.613412126288 -6.072608005542 22.664546882837 -6.771027412381 22.519988092445 -26.200317249000 -158.754755874123
3.768372000000 -9.424649803759 66.531465315552 -6.088890874958 20.951424443018 -6.615938423498 22.696470337066 -26.353386109923 -157.246588933948
3.780370000000 -9.494235057873 65.691719174959 -6.184299656440 19.319041461352 -6.364751544689 21.764587133326 -26.493504095935 -154.810474210867
3.792368000000 -9.519142970413 64.322849998789 -6.304360423333 18.129565999744 -6.193721745798 19.442021671561 -26.711568679825 -153.575660317503
3.804366000000 -9.549557652526 62.899796712106 -6.405875099467 17.401733788450 -6.222648307522 16.533383322663 -27.090773863306 -153.369412496851
3.816364000000 -9.534611394038 61.644481759522 -6.445136724870 16.756638823320 -6.458769912392 14.022757989349 -27.416503088700 -154.223962549333
3.828362000000 -9.461285853502 60.444521505075 -6.421048015332 16.271785828860 -6.802113131988 12.904349506226 -27.526653329054 -154.546770924711
3.840360000000 -9.348467744075 59.306144112573 -6.376868301263 15.423359797729 -7.041823590241 13.177553250082 -27.527277571134 -154.231476653518
3.852358000000 -9.290085075521 58.014190470693 -6.309592570140 14.108312801669 -7.087311892336 14.183133029951 -27.539544221724 -153.252542160373
3.864356000000 -9.345861661998 57.140802547378 -6.293360036235 12.618688524464 -6.913457124269 14.607278771918 -27.585805964989 -150.401921340701
3.876354000000 -9.400166837022 56.404439356017 -6.339408501125 11.173855257738 -6.632418381835 13.650384806415 -27.751710297437 -147.161836773288
3.888352000000 -9.432743869528 55.327023560844 -6.440544860180 9.706147260191 -6.437220316437 11.417551008131 -27.972154273553 -144.081958605173
3.900350000000 -9.483370724695 53.958008864769 -6.548242860754 8.684696305878 -6.444517080128 8.455454438412 -28.568827150378 -143.554644652282
3.912348000000 -9.481547901600 52.470182793199 -6.619740754195 7.960341826541 -6.643119219089 5.881595447409 -29.164862690991 -143.638946049533
3.924346000000 -9.435987722191 51.117549391091 -6.621996905975 7.078523649273 -6.984162745067 4.551366962069 -29.740160863709 -143.511391813943
3.936344000000 -9.355799854083 49.643146485987 -6.590441136060 6.531766473613 -7.237847804906 4.761078648292 -29.575854796953 -146.750361115905
3.948342000000 -9.294845464228 48.263631809956 -6.544267998772 5.495760614065 -7.285939796372 5.741532750812 -29.414033962220 -147.247521960505
3.960340000000 -9.300784684450 47.100641247597 -6.515101516492 4.156176928893 -7.147618043146 6.203754784110 -29.213525575494 -145.497615207340
3.972338000000 -9.316445226334 46.491681660614 -6.539670749985 2.656044347482 -6.885725468412 5.291667974960 -29.061025830608 -142.519706602060
3.984336000000 -9.365615600230 45.603220735927 -6.616743020138 1.197670147737 -6.690265706420 3.348561821770 -28.843552540326 -137.995589643876
3.996334000000 -9.352963336438 44.391913070067 -6.711865566129 0.098589491412 -6.677180661018 0.566150536012 -29.133562346212 -134.674498688275
4.008332000000 -9.384482354778 43.010255302336 -6.793629501798 -0.760033688574 -6.889946883892 -1.908615664971 -29.648426506281 -133.056932806344
4.020330000000 -9.345684826372 41.614708384931 -6.819494016011 -1.386680372309 -7.194675915720 -3.079273976109 -30.204488502380 -130.993334548087
4.032328000000 -9.283019661990 39.996984183954 -6.804196620943 -2.140027918577 -7.420154107685 -2.851641594025 -30.662607223684 -131.848279309247
4.044326000000 -9.245755540585 38.442249621194 -6.780569087378 -3.109543540253 -7.464342487471 -1.880374982213 -30.464336078783 -132.575494443667
4.056324000000 -9.246631526835 37.354203660451 -6.753138631395 -4.347344555937 -7.246654806036 -1.352218961299 -30.068846466331 -132.596588944783
4.068322000000 -9.256393479106 36.765459878127 -6.725902126649 -5.833953405698 -6.968491012138 -2.234742546111 -29.476296503655 -130.402436549227
4.080320000000 -9.231712602452 36.108718123690 -6.786640504555 -7.207377429390 -6.752917123528 -4.613571170235 -29.105017031429 -126.299165370663
4.092318000000 -9.239949113245 34.943399158711 -6.869803724152 -8.519369384009 -6.730374781814 -7.717934116329 -29.051686540939 -121.033015168990
4.104316000000 -9.261251754156 33.493379964378 -6.959795514149 -9.402264855482 -6.985495043273 -10.680993172132 -29.115026680031 -116.178954144527
4.116314000000 -9.254182522257 32.086512314687 -7.038801625757 -10.309947120771 -7.341954268292 -11.943930279224 -29.651392169993 -109.514278439596
4.128312000000 -9.175523882590 30.485284568153 -7.044383515576 -10.812917441184 -7.666134416609 -11.743081613230 -30.167698540794 -106.712975705197
4.140310000000 -9.118807291904 28.972512135466 -7.028934672790 -11.605814670345 -7.767361842029 -10.403498276491 -30.465301108913 -106.392336163517
4.152308000000 -9.115835667770 27.805633763829 -6.980695611036 -12.944787435081 -7.622816343785 -9.329284574360 -30.504621219982 -107.479945154028
4.164306000000 -9.105177426655 27.248093932109 -6.939044062459 -13.949305943367 -7.301714380643 -9.713581348789 -30.004522717632 -108.421348109376
4.176304000000 -9.086713362114 27.014961431867 -6.951950980382 -15.424896959905 -7.027826664111 -11.695311128950 -29.455715746726 -106.995274417294
4.188302000000 -9.099750624252 25.831243674446 -7.023840918713 -16.750054893498 -6.943355470404 -14.725506286005 -28.981683677174 -104.231023553238
4.200300000000 -9.113245030845 24.282077578239 -7.129839313328 -17.803233020093 -7.138442637004 -17.552482682538 -28.794610362076 -99.306315746893
4.212298000000 -9.083580134561 22.829437780866 -7.220358842190 -18.602238406345 -7.473351276682 -19.226383903465 -28.811055333593 -93.176105442110
4.224296000000 -8.997391682725 21.372218385823 -7.289760499899 -19.256066013270 -7.786763142129 -19.190084134460 -28.934416275505 -88.654721785087
4.236294000000 -8.957311940060 20.063069760886 -7.297188633603 -19.880467467405 -7.905642895955 -18.041518396582 -29.181651479552 -86.852399054214
4.248292000000 -8.939453358693 18.604469063574 -7.264686963876 -20.897486428509 -7.744619507044 -17.077526222797 -29.434370720414 -87.870484876677
4.260290000000 -8.919698574972 17.659795382511 -7.192773286888 -22.119367358400 -7.426078165283 -17.576475376776 -29.379276490600 -89.090965227606
4.272288000000 -8.873497066653 17.059490862743 -7.171535910504 -23.758702274163 -7.152878455312 -19.890910058031 -29.007549505253 -91.430659458064
4.284286000000 -8.832296253415 15.820710472664 -7.211481069410 -25.309223170835 -7.068044320938 -23.199974828218 -28.309160634174 -93.105607693886
4.296284000000 -8.840072738572 14.533033753095 -7.305370005127 -26.705511668754 -7.267698871805 -26.463969095551 -27.437168798250 -90.392614515378
4.308282000000 -8.872795817713 13.057246313286 -7.408080104184 -27.911071023633 -7.685304543788 -28.314062679009 -26.849117358649 -85.361772889065
4.320280000000 -8.839207708839 11.643768332614 -7.516031530250 -28.769422369470 -8.074414792091 -27.824485798106 -26.359860852798 -79.193072954695
4.332278000000 -8.761225668752 10.148146031093 -7.549951087230 -29.290394391723 -8.192678692849 -26.085321988721 -26.288858674106 -74.348313483511
4.344276000000 -8.724272929049 9.083888115091 -7.526802140360 -31.429521103201 -8.004126223946 -24.225061955636 -26.676053818870 -72.311277568020
4.356274000000 -8.696494864890 7.889592076741 -7.471615233460 -30.775530614750 -7.629629158049 -24.415043573584 -27.103783442595 -72.324794268197
4.368272000000 -8.653843698744 7.771417915312 -7.409686770186 -31.904534843176 -7.239617056563 -26.559282450318 -27.225071513876 -74.642024659600
4.380270000000 -8.589522203213 6.778735203016 -7.411850695920 -33.486336770234 -7.043278194469 -30.027251315740 -26.845957724707 -77.539449168740
4.392268000000 -8.594954053285 5.680441789771 -7.461146082698 -35.102529328242 -7.176716675856 -33.950147088507 -26.294290554423 -78.136561223473
4.404266000000 -8.659399391739 4.356449918045 -7.557932094398 -36.434742076027 -7.623948731759 -36.385250640038 -25.683328361509 -76.160752937796
4.416264000000 -8.655173840972 3.137492491938 -7.690151370767 -37.455988962383 -8.083869708527 -36.427411456200 -24.985697506266 -72.812360623050
4.428262000000 -8.596099794697 1.606924722420 -7.808447158033 -37.758514819126 -8.345767618569 -34.554993395249 -24.620897692452 -69.435139859125
4.440260000000 -8.522883363222 -0.151863963287 -7.823365007348 -38.070716182873 -8.239649530429 -32.441065166605 -24.663479133524 -66.867430710432
4.452258000000 -8.501080635013 -1.178312017784 -7.778970697831 -38.555080459523 -7.848060608888 -31.877665182054 -25.099821793094 -66.382910461340
4.464256000000 -8.438110504008 -1.419957696250 -7.691279080021 -39.385227597706 -7.380495576170 -33.484868379746 -25.352101230949 -66.121474548949
4.476254000000 -8.336813572688 -1.858666398505 -7.637134966107 -40.838471381713 -7.110296427755 -37.188776003312 -25.249052915909 -68.143100747725
4.488252000000 -8.275890581445 -2.955053103790 -7.624747110375 -42.601338829912 -7.185237466334 -41.463111527568 -24.938494753315 -70.099163038671
4.500250000000 -8.310688076025 -4.230746767919 -7.734178918972 -44.096963165901 -7.624802901649 -44.538118843081 -24.562211435434 -71.162261046293
4.512248000000 -8.335099275633 -5.189490125890 -7.859562367118 -45.369170009979 -8.179290679076 -45.041949636143 -23.898770745495 -70.520959928035
4.524246000000 -8.293648491744 -6.771003036221 -8.009592100192 -46.231206884466 -8.533722065049 -43.044532202194 -23.334711642656 -68.892927952845
4.536244000000 -8.239309987974 -8.195929024460 -8.081888152060 -46.333026786072 -8.473716497576 -40.169156240570 -23.078976940002 -67.571584280082
4.548242000000 -8.211704083410 -9.367417134553 -8.044182064161 -46.294023627005 -8.041141127275 -38.687458622166 -23.145133041158 -66.452495283682
4.560240000000 -8.196080046522 -9.728282229673 -7.974946276322 -46.971031311726 -7.452763423061 -39.748615437625 -23.260422216133 -65.668656995621
4.572238000000 -8.070833902670 -9.839847297658 -7.865663403212 -48.263892215153 -7.019297210185 -43.231807215651 -23.147030944057 -65.685063424208
4.584236000000 -7.972390784202 -10.652865862492 -7.768990183032 -49.947279045809 -6.943125892403 -48.548158074853 -22.947811043108 -66.295634530338
4.596234000000 -8.024011770682 -12.381043174133 -7.836621719345 -51.649015201097 -7.329065765169 -53.182691924245 -22.731033170164 -67.585691339174
4.608232000000 -8.090148459005 -13.401383231505 -7.943116403846 -53.504654262894 -7.968777058702 -54.988775895095 -22.402538664477 -68.330458870252
4.620230000000 -8.089744288134 -14.370528425234 -8.107494496659 -54.613394194302 -8.533333132992 -53.724905696719 -21.942003931576 -67.954995910551
4.632228000000 -8.014846761191 -15.862526023317 -8.240706351274 -54.721791296604 -8.697781883532 -50.656345436268 -21.541558496525 -67.359892916809
4.644226000000 -7.992828080105 -17.391207003408 -8.326066171370 -54.692195336378 -8.353860451440 -48.054971964061 -21.475465901445 -66.571698019266
4.656224000000 -7.930239297515 -18.008417205479 -8.238688219324 -55.062081004888 -7.742076568750 -47.710150070463 -21.453192741625 -64.845324624648
4.668222000000 -7.813227492814 -17.735776921835 -8.081435408627 -55.634001767985 -7.204913858413 -50.531763195733 -21.421130655896 -63.470572067752
4.680220000000 -7.708505998594 -18.194497525783 -7.953114075118 -56.893307162746 -6.978699835675 -55.612652775912 -21.385502230704 -63.776648321102
4.692218000000 -7.758368598656 -19.904524699838 -7.924056109194 -58.918323493208 -7.231755450681 -60.863657478680 -21.287006946118 -65.447067502006
4.704216000000 -7.862841171956 -21.054139782319 -7.982059934055 -61.124115648158 -7.880702895374 -63.882562741607 -21.006207013870 -66.223435574373
4.716214000000 -7.885961988745 -21.924150156415 -8.137198094656 -62.632408560774 -8.554881708306 -63.801769434314 -20.671215547563 -65.981336134632
4.728212000000 -7.820129336394 -23.097088845959 -8.350245154311 -63.316836860368 -8.930919764604 -61.024217888529 -20.432859112031 -65.268352684736
4.740210000000 -7.759683027690 -24.713147927608 -8.492321443828 -63.434660215968 -8.820997202489 -57.608690547343 -20.383266252215 -64.648885026023
4.752208000000 -7.663819649379 -25.760468224304 -8.467593196720 -63.207998303236 -8.276608014067 -55.920726954772 -20.494882951635 -63.987595614876
4.764206000000 -7.612775122699 -25.812077214210 -8.335052136485 -63.256843886651 -7.592401383737 -57.158526066159 -20.540760597715 -63.763836818446
4.776204000000 -7.492995143854 -25.696525208618 -8.170399675523 -64.062243487937 -7.078805974977 -61.700900640314 -20.494328426652 -63.953111691221
4.788202000000 -7.455012112598 -26.915923896057 -8.092156953689 -66.012730573848 -7.055777591052 -67.777142003583 -20.424795708331 -65.441350206706
4.800200000000 -7.534190319182 -28.335995335619 -8.091268094738 -68.476322891956 -7.576492339428 -72.742439935909 -20.396509804263 -66.911197616419
4.812198000000 -7.625525458510 -28.868801710034 -8.221563067599 -70.497584072733 -8.419601941654 -73.985573462950 -20.152516578024 -67.882576860112
4.824196000000 -7.582728697545 -29.714920699091 -8.443098504143 -71.771950219818 -9.110309176104 -71.644373954046 -19.809021610335 -68.096889106835
4.836194000000 -7.504972211752 -31.080637232836 -8.653477786048 -72.191691867792 -9.276220688329 -67.207696416493 -19.629960278036 -68.395414004140
4.848192000000 -7.493952033245 -32.500354574349 -8.737077931496 -71.600748135540 -8.818721299565 -63.591294320331 -19.554114278681 -68.592726657014
4.860190000000 -7.496918078325 -33.017744394175 -8.669759138770 -71.185270219211 -8.017960056650 -63.431889719041 -19.609759534556 -68.374230788314
4.872188000000 -7.386812503342 -32.901922767738 -8.490440260404 -71.376011854553 -7.269281624816 -67.196052485627 -19.425261304510 -67.805786650221
4.884186000000 -7.262761907595 -33.559141423205 -8.291522279042 -72.964514784716 -6.978803171236 -73.405617839524 -19.176291334911 -68.473362206652
4.896184000000 -7.307833338703 -35.194180895857 -8.168485530822 -74.928547023766 -7.332296905625 -79.429386518645 -19.058442356509 -69.722952817233
4.908182000000 -7.401303051568 -36.087444209914 -8.205068609836 -77.217049567785 -8.126086022261 -82.498848236534 -18.960091350509 -69.941305112745
4.920180000000 -7.410475707216 -36.547916656241 -8.414029686034 -79.385289621231 -8.932867323011 -81.734298622235 -18.818816394032 -70.531254686631
4.932178000000 -7.343890502195 -37.688881370178 -8.655197028795 -80.421132669863 -9.363306467697 -77.632015600756 -18.593760195512 -71.030367104356
4.944176000000 -7.291262171257 -38.862392588019 -8.847391040428 -80.147392319230 -9.123879665745 -73.092414842732 -18.465794268522 -71.467095709685
4.956174000000 -7.273176843380 -39.706374580260 -8.864767867113 -79.322650089645 -8.403977675076 -71.415344946682 -18.443691511651 -71.035313617847
4.968172000000 -7.228994177501 -39.530142115179 -8.732208721136 -79.197070499133 -7.555568989762 -73.584276450455 -18.337214998708 -70.174315359303
4.980170000000 -7.071516440084 -39.767540534616 -8.481864800896 -79.986945870464 -7.084082798733 -79.442225305632 -18.133805338605 -69.849923878619
4.992168000000 -7.061861548760 -41.446596630415 -8.243168162155 -81.637477052090 -7.207951705423 -86.252686118253 -17.989200052781 -70.991888412308
5.004166000000 -7.174382185074 -42.478222807343 -8.214321264851 -84.347854345040 -7.889916496248 -90.916691933617 -18.072197167980 -71.165584669952
5.016164000000 -7.267301001359 -42.891862291861 -8.346863846089 -86.746922965967 -8.781257022192 -91.584632289148 -18.116268022408 -71.482706987127
5.028162000000 -7.232401395098 -43.350027746356 -8.623030193621 -88.354717368762 -9.426493892217 -88.593117494149 -18.011094008362 -72.334046472371
5.040160000000 -7.164391444337 -44.439850262517 -8.875925451067 -88.906363539006 -9.504752911121 -83.565740750263 -17.856699648000 -73.497627255371
5.052158000000 -7.162668265562 -45.766708690268 -9.053396067608 -88.449344944959 -8.929320077795 -79.846757998545 -17.841678947063 -74.259721702716
5.064156000000 -7.140805526470 -46.325137215317 -8.989855653285 -87.411074893051 -8.056629753652 -80.339376489229 -17.764288080720 -73.448119192614
5.076154000000 -7.026618037423 -46.177643058020 -8.773057753384 -87.378388020047 -7.400526223020 -85.112889376320 -17.497383228144 -73.220819904999
5.088152000000 -6.954476675933 -47.334111462791 -8.500195856404 -88.476092909331 -7.226910168938 -92.142854062962 -17.289138837706 -73.118670867072
5.100150000000 -6.994576269274 -48.880289311788 -8.312847269911 -90.723358248831 -7.733613389292 -98.169808010852 -17.283626253073 -73.919156292158
5.112148000000 -7.091613023468 -49.445333405456 -8.307250927679 -93.389105053948 -8.606721226564 -100.422100104830 -17.430628063384 -73.522485475044
5.124146000000 -7.093107730529 -49.552384323231 -8.517822124570 -95.563486989560 -9.404340856110 -98.830343950254 -17.542305124449 -74.675455985857
5.136144000000 -7.030144541575 -50.316494656376 -8.809152612659 -96.934920643374 -9.750297864845 -94.075710037808 -17.516577498877 -76.769299356463
5.148142000000 -6.992319175102 -51.674315348594 -9.042302074260 -96.806679854310 -9.430156683167 -88.969376374001 -17.468309551347 -78.557389064232
5.160140000000 -7.001433432779 -52.446728940964 -9.116613820940 -95.942686692714 -8.553022575844 -87.225241319160 -17.460121670970 -79.579044956369
5.172138000000 -6.943445898783 -52.416339274926 -8.999361206611 -95.293839027672 -7.637930579851 -90.222511834812 -17.053678013139 -79.470289046097
5.184136000000 -6.831537050900 -52.736845032970 -8.682606088789 -95.559011424937 -7.170269540975 -96.643718950960 -16.720008015634 -79.421172383272
5.196134000000 -6.815840604094 -54.305494480616 -8.424932776694 -97.460132846888 -7.379087170525 -103.928911976081 -16.551575331241 -79.783263024443
5.208132000000 -6.940316868118 -55.270957028678 -8.313433357249 -99.973024216289 -8.128134270826 -108.808576385674 -16.652747812300 -79.619842769241
5.220130000000 -7.005773683959 -55.451807057896 -8.410632971685 -102.769439398559 -9.048902826562 -109.087768979516 -16.806576969926 -79.164752044369
5.232128000000 -6.979559527236 -55.792067308231 -8.677304879176 -104.578581816981 -9.689630090982 -105.670870474795 -16.842037776286 -80.219474273108
5.244126000000 -6.942927579860 -56.974520502748 -8.980483066491 -105.254403106906 -9.745360461019 -100.620246864202 -16.897691456931 -82.391439329973
5.256124000000 -6.902916006434 -58.429117674872 -9.161569154165 -104.661662523298 -9.078087164919 -96.607016985308 -16.686978721787 -83.976346565589
5.268122000000 -6.845878812464 -58.567908446702 -9.141236038084 -103.399777025665 -8.157508661924 -97.179040760675 -16.449518348394 -84.582055124859
5.280120000000 -6.736706921428 -58.463381854037 -8.902815230136 -103.081392317978 -7.402198320163 -102.563798653231 -15.997747480824 -83.940413780760
5.292118000000 -6.715447457894 -59.710835320803 -8.548378709868 -104.032169527411 -7.330778423813 -109.783563482309 -15.673316357744 -83.920167163922
5.304116000000 -6.846541381104 -61.130648127348 -8.288453990882 -106.544873824935 -7.905929531933 -115.957320640746 -15.656957719749 -83.160625564706
5.316114000000 -6.985582448952 -61.883072554900 -8.260905073450 -109.340828631068 -8.781363863918 -118.541677755088 -15.900656615706 -81.568819322105
5.328112000000 -7.009442658227 -62.212045525299 -8.412988834486 -112.135014545226 -9.604477406396 -116.413575157509 -16.067229417676 -81.174960286329
5.340110000000 -6.840352665753 -63.212652450431 -8.733893108532 -113.773478913986 -9.975444505652 -111.569909392246 -16.172874972488 -82.164009465762
5.352108000000 -6.720962764075 -64.160233599457 -9.053961081846 -113.894954230734 -9.650187177771 -105.954794684221 -16.258647719842 -84.435269415965
5.364106000000 -6.762070450829 -64.706784247888 -9.228885453793 -113.130217403722 -8.717529069400 -103.996285876379 -16.172335790604 -85.836128317204
5.376104000000 -6.725274739585 -63.933815435417 -9.129276886652 -111.946942847368 -7.761176296888 -107.090932380477 -15.933025462173 -85.650049596941
5.388102000000 -6.718256872704 -64.532778901743 -8.867607775981 -111.780960877737 -7.318585660215 -113.914411945445 -15.626750381712 -85.596603816787
5.400100000000 -6.676498933820 -65.974384280180 -8.517976207820 -113.055107419020 -7.532928956063 -121.162726701096 -15.537688063456 -86.123819262078
5.412098000000 -6.726603078862 -66.521537501097 -8.325860055085 -115.719017011625 -8.303578666925 -125.624982984277 -15.681327887375 -85.717783753165
5.424096000000 -6.783738643070 -66.284619031782 -8.380043638130 -118.605380694786 -9.185125784423 -125.558546375670 -15.917915573685 -84.945460766817
5.436094000000 -6.740214005845 -65.691441049890 -8.610888524348 -120.561281260061 -9.835048959652 -122.234612512907 -16.080752021234 -85.799962173886
5.448092000000 -6.798839915379 -66.588010325753 -8.944467060100 -121.916169496089 -9.904177274149 -116.998040843846 -16.135736702691 -87.700649448492
5.460090000000 -6.895397750453 -68.558275454594 -9.206042886977 -121.822318437228 -9.236734334110 -112.986841922723 -16.139261678119 -89.517253196293
5.472088000000 -6.828952133692 -69.147422119787 -9.221089964703 -120.931874869215 -8.228959260420 -113.644820098366 -15.972576308336 -90.381012419131
5.484086000000 -6.745770668917 -69.710236010125 -9.047174560154 -120.158233442017 -7.504343967855 -119.241839067020 -15.641300347247 -90.803457368181
5.496084000000 -6.546268551222 -70.750451256257 -8.702547191998 -120.480410980081 -7.420600662471 -126.756484330981 -15.308075201319 -91.246669608135
5.508082000000 -6.570901046888 -71.340790000998 -8.417792028904 -122.188153489062 -8.028314117844 -132.876706497827 -15.313617681319 -91.091419311594
5.520080000000 -6.667330674197 -70.685286015298 -8.324329656562 -125.218322990233 -8.926045606920 -135.513149954749 -15.503090835578 -89.488555721264
5.532078000000 -6.735237942139 -69.386966914593 -8.473710075134 -127.808574063045 -9.715181819787 -133.782037704684 -15.794964381190 -88.581345371658
5.544076000000 -6.793150129812 -70.419966345925 -8.768003444676 -129.943742622516 -10.150347407796 -129.090213859035 -16.001410524300 -90.116426924478
5.556074000000 -6.874197859608 -71.760920179690 -9.066338957308 -130.397698501026 -9.840655712774 -123.356265970203 -16.270140949041 -92.769418515587
5.568072000000 -6.954496823785 -73.658660949736 -9.205364013538 -130.084897380583 -8.905599885873 -120.913300093683 -16.235700109072 -95.088473066788
5.580070000000 -6.856921467038 -74.286614225039 -9.149648462036 -129.138949143712 -7.965690849348 -123.751730460769 -16.001043474253 -96.009459762548
5.592068000000 -6.735843066654 -75.056789856884 -8.881487765926 -128.904576444512 -7.480381518890 -130.599115016196 -15.453747291889 -96.659435540961
5.604066000000 -6.631429272224 -76.177941875747 -8.547577241434 -130.087585813661 -7.739348382933 -138.072837484924 -15.225072145578 -96.619295969721
5.616064000000 -6.682517775395 -76.273555017078 -8.335948438770 -132.672308048420 -8.495207109098 -142.521699830256 -15.287910279091 -94.395152991951
5.628062000000 -6.731972850416 -75.184190794251 -8.327151925211 -135.288071495599 -9.391521405809 -143.213159927150 -15.663711290615 -92.363912626106
5.640060000000 -6.781436074824 -74.881583979395 -8.545973277523 -137.528836212866 -10.031868009424 -140.547461272599 -15.971567715087 -92.357578443941
5.652058000000 -6.836578385635 -75.900283560471 -8.848793332393 -138.923352246420 -10.142987942698 -134.893192088651 -16.260833362024 -95.290836128078
5.664056000000 -6.943002080555 -77.031721628972 -9.125900418499 -138.744821104917 -9.473411181222 -130.546873327819 -16.203749245910 -97.957927122478
5.676054000000 -6.991921102294 -78.154384749656 -9.171046817306 -138.149960203936 -8.477669034947 -130.501964324316 -16.025849204136 -99.624911791501
5.688052000000 -6.924655171591 -78.477106415433 -9.017339557085 -137.445050869098 -7.673346708107 -135.240125671504 -15.548895318537 -99.961980530350
5.700050000000 -6.821304090668 -79.976091541070 -8.703011332754 -137.610680609936 -7.539814221016 -142.463547378137 -15.245359322928 -99.808143046703
5.712048000000 -6.868275325068 -80.957893714106 -8.398394802817 -139.374056518832 -8.068793851693 -148.841888814848 -15.250704025029 -98.287961499015
5.724046000000 -6.946760182628 -80.680014463627 -8.228241958220 -142.275851468253 -8.961621198400 -151.482544679252 -15.458016948930 -95.491947956812
5.736044000000 -6.993799308460 -80.024454899769 -8.323941272908 -145.031748121090 -9.735168278798 -150.234656806059 -16.007911029241 -94.244564038022
5.748042000000 -6.970664262091 -80.704404592580 -8.594541336917 -147.103210256987 -10.144246769177 -146.455671330661 -16.410702432750 -95.521521070441
5.760040000000 -7.006054108751 -81.785473829865 -8.907416919123 -147.817247501091 -9.908314060253 -141.411673823656 -16.724890465315 -99.177917461718
5.772038000000 -7.014274175913 -81.921356627522 -9.014281195419 -148.680015087106 -9.019159469903 -138.846346378642 -16.664149118122 -102.871114104593
5.784036000000 -7.035577997561 -82.658184693859 -9.068265752499 -147.035075659335 -8.044520134969 -141.610191894123 -16.131391336924 -104.698858085345
5.796034000000 -7.020730719926 -83.432570001321 -8.859912882866 -146.455386433304 -7.559518526706 -147.804785043759 -15.596790200496 -105.029494523527
5.808032000000 -6.960552985471 -84.422726514106 -8.543615707149 -147.197267565079 -7.740271668230 -154.750605737427 -15.320528974616 -103.620991557696
5.820030000000 -7.044476134057 -84.542527349367 -8.274912256510 -149.195274415171 -8.404150030352 -158.955784962870 -15.403171825035 -100.313357297257
5.832028000000 -7.155923340646 -83.928396825309 -8.257575109405 -152.087444852698 -9.187643465318 -159.986164209334 -15.778451061139 -96.488899380637
5.844026000000 -7.246208988742 -83.987491281080 -8.410157950562 -154.891282204636 -9.898578115430 -157.493391399499 -16.324798229356 -95.700895260878
5.856024000000 -7.134097371518 -84.703003573253 -8.653571353236 -156.450178119810 -10.099778249679 -153.025041595701 -16.825480196648 -96.884731411453
5.868022000000 -7.202875106673 -86.013310702110 -8.955631832272 -157.237044995630 -9.600211219229 -149.216114218037 -17.276777337392 -101.472083658295
5.880020000000 -7.226446395722 -86.254625060300 -9.012368163215 -156.623172194959 -8.711038175551 -149.109801171135 -17.123278326372 -104.899169072069
5.892018000000 -7.237043203525 -86.162331177052 -8.919337047409 -155.976226093528 -7.974469096004 -153.262005255735 -16.572359138286 -106.751497732969
5.904016000000 -7.218059402088 -87.367613983604 -8.678842940802 -155.811057318524 -7.797892830259 -159.656145362064 -16.116637267418 -106.376919225842
5.916014000000 -7.301062112455 -87.722143008833 -8.403915489177 -157.126908559048 -8.207939934242 -164.918202561213 -15.946477922960 -103.594183906278
5.928012000000 -7.471919816305 -87.177810495339 -8.249685083094 -159.828654936230 -8.910143378288 -167.044817179744 -16.136228584194 -98.874027912296
5.940010000000 -7.488291564698 -87.174196760599 -8.306093637690 -162.598662778940 -9.573937845492 -166.541018404382 -16.712535424065 -95.617177321785
5.952008000000 -7.418475777731 -88.440739493512 -8.495130201175 -165.154602825722 -9.873486798078 -162.823562090572 -17.431217202325 -95.952736399578
5.964006000000 -7.431935452066 -88.699568414943 -8.704604166234 -165.842161209947 -9.625907382738 -159.184132580349 -18.108143591800 -99.814795791990
5.976004000000 -7.527126788745 -89.516556360430 -8.885389800408 -166.262876004112 -8.860527207934 -158.218437897726 -18.368969642796 -104.445946861580
5.988002000000 -7.491629035094 -89.616421578302 -8.940529381091 -165.719946927093 -8.146864260662 -161.153368120142 -17.983620644732 -108.325866587901
6.000000000000 -7.469805742475 -90.190141146024 -8.779687692188 -165.270331772739 -7.812239239623 -166.767594392811 -17.238624853248 -108.635998722483
