# GHZ S DB R 50.000000000000
0.001000000000 -10.703903116471 76.016902258247 -9.478589521119 22.735317112715 -9.482967144725 23.547605516882 -10.834688700848 53.445480015084
0.012998000000 -11.436712988756 6.460231306678 -7.731660322791 -0.215299003987 -7.721893803514 -0.113570816438 -9.944088996766 3.670576814038
0.024996000000 -11.509294141975 0.839786557773 -7.802609406857 -3.665421371468 -7.781076908129 -3.442125332487 -10.012348121411 -0.339304382253
0.036994000000 -11.412578906235 -0.922116136396 -7.726975305623 -4.913270234410 -7.710636698965 -4.771183990671 -9.913307795581 -1.287256694963
0.048992000000 -11.354294232185 -2.254527638512 -7.711137353533 -6.345190050927 -7.698716140726 -6.250964794860 -9.852991203553 -2.124903067164
0.060990000000 -11.306368574093 -3.442581356249 -7.707244457851 -7.592289912374 -7.699290078272 -7.508134809905 -9.813419039764 -2.797313154521
0.072988000000 -11.282482794104 -4.672264438639 -7.717683415120 -8.986646817749 -7.707686123550 -8.914887453084 -9.800045759794 -3.592927204831
0.084986000000 -11.275107698297 -5.747820415550 -7.733131966591 -10.373972341139 -7.722187774355 -10.286399734834 -9.803811878442 -4.241657509600
0.096984000000 -11.271130346215 -6.701587119041 -7.754418067091 -11.661198238142 -7.743462555054 -11.568216147244 -9.811987465532 -4.750462090192
0.108982000000 -11.263401941087 -7.430030885125 -7.771473110651 -12.852000108211 -7.760148835409 -12.755918478595 -9.816233226443 -5.136818635729
0.120980000000 -11.234545486122 -8.037437337036 -7.773765663833 -13.978837583121 -7.768999308958 -13.945038461377 -9.804249019138 -5.455254205221
0.132978000000 -11.187258707335 -8.648716495734 -7.776381625311 -15.222885755699 -7.770453651224 -15.200513469479 -9.783106037108 -5.725089729175
0.144976000000 -11.127765608823 -9.303157363665 -7.782153610768 -16.346457192599 -7.773734075454 -16.353384445102 -9.740677337523 -6.089883853855
0.156974000000 -11.074580820091 -10.259740293384 -7.798130858742 -17.552860288346 -7.787522186898 -17.570968920906 -9.702463852021 -6.694172830010
0.168972000000 -11.031778315393 -11.384418710040 -7.810142180434 -18.920558193948 -7.794077470102 -18.906705867246 -9.681422696044 -7.496743312962
0.180970000000 -11.008817017184 -12.448494525472 -7.820421823163 -20.211507375886 -7.801251864942 -20.242854542671 -9.672817990369 -8.170595927602
0.192968000000 -10.988830561553 -13.400788670312 -7.833316469888 -21.453268574919 -7.811939146641 -21.469916106591 -9.670104727780 -8.696899819588
0.204966000000 -10.963213101344 -14.216177077606 -7.838314680742 -22.694967099643 -7.822552926178 -22.696262928263 -9.672837641954 -9.104290149680
0.216964000000 -10.930362826823 -14.952816739366 -7.839280851563 -23.939393634098 -7.833289947577 -23.927450150054 -9.659435591117 -9.521743017911
0.228962000000 -10.880192858885 -15.669301938389 -7.844076333198 -25.286359702642 -7.841604174683 -25.230757841177 -9.632797052981 -10.021527187670
0.240960000000 -10.817224192788 -16.510479752761 -7.863859282649 -26.690330225814 -7.862572833499 -26.587896418714 -9.587978372083 -10.657054566262
0.252958000000 -10.756028435790 -17.494691189842 -7.893758977560 -27.976057338696 -7.886698728386 -27.844642499225 -9.547770568672 -11.388266546657
0.264956000000 -10.713830603597 -18.572899587506 -7.920756898890 -29.125182280970 -7.900503687371 -29.020324363405 -9.519028965997 -12.131456130536
0.276954000000 -10.692100228288 -19.634746256961 -7.933883946658 -30.292526385726 -7.910327262968 -30.183238038110 -9.497223870207 -12.776985357230
0.288952000000 -10.670876105749 -20.631009853795 -7.940471956413 -31.422070388850 -7.912967294484 -31.383652335811 -9.479110928887 -13.291343404061
0.300950000000 -10.642391716437 -21.539426783296 -7.941913805172 -32.629808984031 -7.919255590267 -32.571877461139 -9.460816860662 -13.668955594012
0.312948000000 -10.604236949998 -22.301270251590 -7.938242236091 -33.808426453563 -7.928117703328 -33.720731661496 -9.432476468485 -14.035193516286
0.324946000000 -10.542316704492 -23.318115058717 -7.948616673147 -35.250374422771 -7.947001826016 -35.203583942052 -9.398216223445 -14.506725517023
0.336944000000 -10.463842156061 -24.281887708210 -7.978869968488 -36.741605878046 -7.983570118722 -36.597720702231 -9.356695111612 -15.029322804582
0.348942000000 -10.387117469997 -25.357820252835 -8.027339452966 -38.090032849941 -8.025946899330 -37.887258490342 -9.315927616566 -15.696529153889
0.360940000000 -10.332448839360 -26.479581107594 -8.074891983161 -39.203468701315 -8.060451994058 -39.029000855921 -9.291348637972 -16.455082098500
0.372938000000 -10.299096520845 -27.592525914293 -8.101205981728 -40.250416694433 -8.072256128678 -40.125248576650 -9.276287014115 -17.127668874817
0.384936000000 -10.280633314246 -28.614107481783 -8.106287746276 -41.295789491504 -8.067780132426 -41.251869002437 -9.256948466030 -17.640320227818
0.396934000000 -10.255785723806 -29.588022203069 -8.100966224689 -42.443081940472 -8.068191543908 -42.483268141402 -9.235143531157 -18.146946550382
0.408932000000 -10.221986861734 -30.538964081870 -8.086772211496 -43.722322190531 -8.073938514762 -43.754296902605 -9.204174348412 -18.568458607673
0.420930000000 -10.172601078116 -31.476773885441 -8.091818388072 -45.132786553994 -8.097760122843 -45.162079418423 -9.167942650298 -19.006965936135
0.432928000000 -10.103535871153 -32.481086423785 -8.128428153200 -46.720595213283 -8.147848361738 -46.578105774519 -9.119501926297 -19.541982236886
0.444926000000 -10.030085273014 -33.581367781437 -8.192872814020 -48.132309028203 -8.217635062521 -47.932765778185 -9.077720069918 -20.210653286524
0.456924000000 -9.972828204292 -34.736256093958 -8.274943976872 -49.264503613653 -8.276634398975 -48.940095633175 -9.051711760764 -20.974298124439
0.468922000000 -9.938865676176 -35.878674338295 -8.324440436349 -50.193036592447 -8.293827156754 -49.948585017805 -9.041517433597 -21.677099057324
0.480920000000 -9.913251242518 -37.023700096891 -8.343562713378 -51.143425012838 -8.292476735296 -50.943215505534 -9.028902823158 -22.311646357043
0.492918000000 -9.884615039218 -38.115623209623 -8.334557521588 -52.245079045585 -8.275128075361 -52.183514238484 -9.004465189625 -22.915424700687
0.504916000000 -9.851722979422 -39.219423957638 -8.318406536049 -53.471301947847 -8.266276949078 -53.545083333933 -8.970378631430 -23.468481674675
0.516914000000 -9.801023535492 -40.292134311780 -8.308746294299 -54.926243104003 -8.287404207651 -55.063373822519 -8.929915841399 -24.012905193472
0.528912000000 -9.735098635925 -41.364957136960 -8.338598036133 -56.541037307031 -8.341690721729 -56.565747119220 -8.881645716631 -24.582401206589
0.540910000000 -9.657923799063 -42.514791975943 -8.409011699023 -58.056288282188 -8.435475842217 -57.968470705982 -8.826062245357 -25.258021810039
0.552908000000 -9.590792721818 -43.716886717417 -8.505458897181 -59.289266939191 -8.524947003145 -59.025542782753 -8.782931063884 -26.007526904507
0.564906000000 -9.544472921221 -44.918965123002 -8.589872118661 -60.245353918172 -8.580194121166 -59.887452303116 -8.756168225855 -26.727884713158
0.576904000000 -9.510399714217 -45.973327155947 -8.626941848978 -60.986596436635 -8.583108847599 -60.804751795652 -8.736782788899 -27.436329424001
0.588902000000 -9.489811311342 -47.073530628525 -8.628898345245 -61.918727358642 -8.570707161766 -61.915770271650 -8.705879606053 -28.063139618090
0.600900000000 -9.470311884439 -48.194276336797 -8.597803848078 -63.092001893622 -8.557369611206 -63.253523717627 -8.661348836457 -28.637224340531
0.612898000000 -9.433134422344 -49.320769787185 -8.583032921676 -64.518620070871 -8.567695118369 -64.730764263249 -8.619098956212 -29.130727851521
0.624896000000 -9.382434280167 -50.468584164890 -8.597418868153 -66.177287781004 -8.621184051220 -66.279965998893 -8.561361715014 -29.678571929290
0.636894000000 -9.308928040637 -51.679795209692 -8.667580758674 -67.835223017838 -8.720738845009 -67.674012312119 -8.503137589507 -30.306181863584
0.648892000000 -9.240688199874 -52.981494791276 -8.788433227172 -69.229606132630 -8.835971574105 -68.786304803599 -8.453386594725 -31.016647274161
0.660890000000 -9.184374425337 -54.282704889017 -8.913169086106 -70.240966878852 -8.914201003699 -69.614135115419 -8.416462749209 -31.765294781264
0.672888000000 -9.139375498817 -55.540302722087 -8.997126170288 -70.900715826510 -8.946729361327 -70.427841670712 -8.393239165158 -32.392429365246
0.684886000000 -9.104545629638 -56.696988600049 -9.023436475388 -71.489940262915 -8.944122260551 -71.434348584503 -8.364403958140 -33.023095486927
0.696884000000 -9.068706492345 -57.832034346250 -8.998635872519 -72.476395916738 -8.929752523148 -72.748686530742 -8.329117268145 -33.649103464937
0.708882000000 -9.029294424482 -59.015372675770 -8.971068348379 -73.733559522673 -8.939812778155 -74.333586212235 -8.280432669328 -34.280323697044
0.720880000000 -8.981194865833 -60.140274854600 -8.968179364482 -75.238350548328 -9.011104148854 -75.901757793449 -8.225223314952 -34.866304422874
0.732878000000 -8.925156348030 -61.277024402788 -9.017023560907 -76.933831845015 -9.140353302494 -77.291435387439 -8.166499322295 -35.467904799507
0.744876000000 -8.871471846283 -62.473070855505 -9.144642094467 -78.456334902472 -9.286184383249 -78.210536746289 -8.115621024605 -36.205555190412
0.756874000000 -8.827270676759 -63.767107802463 -9.294066160459 -79.534113382705 -9.395558312062 -78.773210653208 -8.087393289576 -36.963516459319
0.768872000000 -8.794335570756 -65.033373025923 -9.411587318635 -80.189251574281 -9.432558155975 -79.255173485585 -8.069008564105 -37.713065124774
0.780870000000 -8.772753762190 -66.246304531156 -9.469069615802 -80.580952918006 -9.414840407572 -79.989690044379 -8.043673920684 -38.465964165904
0.792868000000 -8.747098307142 -67.509242176097 -9.458401354768 -81.329427946957 -9.367298991113 -81.147552471903 -8.008637341291 -39.246473229411
0.804866000000 -8.714526815368 -68.879001198603 -9.414805248503 -82.395588034827 -9.338876836901 -82.703905284930 -7.961030953528 -40.016829595159
0.816864000000 -8.671740510737 -70.158091625817 -9.389177744042 -83.858249227755 -9.373852262626 -84.427169054634 -7.904236991469 -40.759370941802
0.828862000000 -8.620947515130 -71.363782080136 -9.411433985691 -85.508526023851 -9.492951473680 -86.081464648590 -7.835681538993 -41.344606720321
0.840860000000 -8.553293055792 -72.606235966990 -9.514607389639 -87.276239919513 -9.668116313525 -87.270356268982 -7.766841840186 -42.107934702752
0.852858000000 -8.505098414809 -73.920969870662 -9.680196292299 -88.634224854792 -9.830594956142 -87.890381507995 -7.720534007839 -42.883261692626
0.864856000000 -8.465308607799 -75.171819484249 -9.846339978473 -89.360981904782 -9.911580414482 -88.202163806269 -7.684107145042 -43.643615476790
0.876854000000 -8.441980896997 -76.442386697924 -9.956547755855 -89.630111537748 -9.914958731078 -88.623676371960 -7.659220068433 -44.384698533136
0.888852000000 -8.425212082522 -77.749974031376 -9.986865693370 -89.908287772061 -9.875809663556 -89.408050679774 -7.627472773045 -45.184794470220
0.900850000000 -8.402095815752 -79.171385522787 -9.937164426441 -90.703617252037 -9.819250838760 -90.887595080222 -7.584195900506 -46.078938066451
0.912848000000 -8.381038713017 -80.588960947697 -9.891177688871 -91.984073202804 -9.827425237864 -92.670720379263 -7.535504433517 -46.920118646982
0.924846000000 -8.342927413987 -81.952026991227 -9.883880725976 -93.590848815842 -9.922753655168 -94.515368552931 -7.471774248237 -47.662498897853
0.936844000000 -8.277589144924 -83.253169621984 -9.942797049174 -95.431027926285 -10.114589642094 -95.842041833449 -7.399222302333 -48.419578212160
0.948842000000 -8.217431186409 -84.518743374659 -10.093176149619 -97.063883829256 -10.317032927789 -96.588611336871 -7.327002880329 -49.130739298119
0.960840000000 -8.180206242554 -85.830238642129 -10.301708094508 -98.116891522547 -10.447986554202 -96.810115878572 -7.283679095778 -49.956702561803
0.972838000000 -8.151027473453 -87.117010081524 -10.474342724953 -98.441315364128 -10.495172601452 -96.920678120944 -7.256228991151 -50.731140507135
0.984836000000 -8.139687202969 -88.307235269729 -10.550884816427 -98.374571646184 -10.462807357443 -97.303417113762 -7.233791898333 -51.499973480427
0.996834000000 -8.135430547061 -89.538131040207 -10.538880712296 -98.495652168113 -10.398582369336 -98.279201846377 -7.203007727342 -52.267578556803
1.008832000000 -8.128799113794 -91.035409645397 -10.480542302647 -99.246743858263 -10.356667597541 -99.961943055978 -7.172020305349 -53.151399431731
1.020830000000 -8.114229334967 -92.497000047957 -10.429762540899 -100.592901532136 -10.410758330252 -101.906254258859 -7.121251517559 -54.082198775758
1.032828000000 -8.067278581056 -93.853737149117 -10.425871197117 -102.406683519404 -10.575770830950 -103.596890620965 -7.059859193051 -54.934994063829
1.044826000000 -8.013902862254 -95.223063143460 -10.516639515483 -104.325095471839 -10.822613316188 -104.614291476912 -6.982470880012 -55.753660137218
1.056824000000 -7.970785520534 -96.553076081322 -10.730400175054 -105.789778926263 -11.026596967000 -104.779006884212 -6.908002209508 -56.570439803910
1.068822000000 -7.944666217952 -97.920320375465 -10.963220761166 -106.490198186696 -11.120126327613 -104.603601681731 -6.860900061828 -57.471115950642
1.080820000000 -7.922201885950 -99.134834717931 -11.112515459263 -106.235367462600 -11.108793634006 -104.487281360071 -6.826973004987 -58.259624924815
1.092818000000 -7.927163048752 -100.443162715913 -11.155710668200 -105.892362025824 -11.026160395776 -104.932044666045 -6.803834305517 -58.993705999504
1.104816000000 -7.932167176313 -101.774813836911 -11.107483751103 -106.024317162425 -10.948087522184 -106.124367296761 -6.781717599468 -59.924938522625
1.116814000000 -7.931327447095 -103.322810128592 -11.016540659065 -106.902180392513 -10.949424542350 -108.023491175371 -6.744337960579 -60.853769977213
1.128812000000 -7.892952768526 -104.784447720778 -10.967722945105 -108.536384242541 -11.067779524276 -109.993894555843 -6.699273492771 -61.768216673975
1.140810000000 -7.860750388709 -106.156917747200 -11.002458253471 -110.639663726064 -11.305059749727 -111.257290471565 -6.627662069171 -62.689870085199
1.152808000000 -7.815479908702 -107.549032078041 -11.178693393915 -112.528738641773 -11.555688884703 -111.645310030403 -6.544885588765 -63.562531987614
1.164806000000 -7.790558319617 -108.868613922463 -11.434855683507 -113.577065209125 -11.697812925262 -111.173669141820 -6.484102589888 -64.468180332516
1.176804000000 -7.780967649476 -110.071332106293 -11.678827600377 -113.417628897459 -11.709440442438 -110.737130436170 -6.445016918318 -65.271318771440
1.188802000000 -7.772642710732 -111.363863072645 -11.796860073089 -112.583557378811 -11.606070676143 -110.604456455227 -6.436263673701 -65.883990979535
1.200800000000 -7.810336572383 -112.760305953857 -11.772084314438 -111.985001954329 -11.494295744709 -111.345714603387 -6.409236976341 -66.771937477862
1.212798000000 -7.825746787320 -114.382178775046 -11.647142353134 -112.171242829879 -11.425575853977 -113.072776073364 -6.390383200626 -67.617118368344
1.224796000000 -7.806031143206 -115.954960017047 -11.517789247443 -113.188979824889 -11.474996976661 -115.275042715482 -6.373402357072 -68.564990740716
1.236794000000 -7.787661231517 -117.371821439553 -11.446704459357 -115.249451069698 -11.692579657725 -117.215029645434 -6.323232422589 -69.583710974897
1.248792000000 -7.759292474879 -118.802566788223 -11.511479591323 -117.482631333250 -11.996977911922 -117.902706306128 -6.251685040142 -70.464295197841
1.260790000000 -7.734615593302 -120.116230367056 -11.738210568295 -119.341912804448 -12.236010401154 -117.531702568641 -6.174359026331 -71.470158954085
1.272788000000 -7.711157948475 -121.565134486306 -12.023233754113 -119.837182254923 -12.307053427690 -116.606907159256 -6.128414127420 -72.332216066379
1.284786000000 -7.711892368560 -122.937340749893 -12.254049764168 -119.213067122675 -12.209388598152 -115.877774022610 -6.112024271214 -73.207082344043
1.296784000000 -7.747974658045 -124.094990987587 -12.309243947456 -118.089991898919 -12.056551731646 -115.876478012801 -6.087062951731 -73.960174307707
1.308782000000 -7.772621099141 -125.685110866259 -12.214582967988 -117.421975692808 -11.928135585279 -117.123756886124 -6.071920849980 -74.793951124202
1.320780000000 -7.765565255530 -127.319242973111 -12.061387910669 -117.829675149579 -11.895917304870 -119.219436221579 -6.049042610750 -75.751711856108
1.332778000000 -7.766541322792 -128.921406976524 -11.930945043986 -119.392415160370 -12.055055053679 -121.473593625472 -6.032268335015 -76.841797130526
1.344776000000 -7.746176224690 -130.341924873733 -11.926873478776 -121.583631159830 -12.348317771943 -122.660633787203 -5.971672728869 -77.847799482596
1.356774000000 -7.730145500787 -131.652245265800 -12.093872622068 -123.613109929976 -12.655900413464 -122.359718515286 -5.900121635222 -78.800804481239
1.368772000000 -7.721762395898 -133.043306999418 -12.391052804495 -124.511564654302 -12.790743988386 -121.152928033367 -5.852106611130 -79.722974528728
1.380770000000 -7.731205280951 -134.304451753893 -12.665834898003 -123.974443333799 -12.711423417968 -119.908103837729 -5.820638136798 -80.592362549032
1.392768000000 -7.762094302556 -135.646707580351 -12.742651904236 -122.414525239519 -12.523450544240 -119.444310748935 -5.810085020327 -81.435797400570
1.404766000000 -7.814307247858 -137.217803171427 -12.624627537850 -121.104563692576 -12.345589626108 -120.102630639349 -5.806593358766 -82.280136263802
1.416764000000 -7.830020404315 -138.972405536014 -12.402397987074 -120.990301508083 -12.235923123653 -121.756910708833 -5.798080693039 -83.300697500796
1.428762000000 -7.825360459421 -140.651182065816 -12.170966393213 -122.152256799537 -12.292248196952 -123.993617622136 -5.789084961237 -84.384505798176
1.440760000000 -7.823406877854 -142.206878933515 -12.016997799613 -124.532338439843 -12.505661434402 -125.523397348932 -5.737094051088 -85.412215412197
1.452758000000 -7.831086464919 -143.529489848062 -12.070143138562 -127.326493596730 -12.784494454028 -125.581137541712 -5.662846443697 -86.437379749656
1.464756000000 -7.848056775996 -145.002286116965 -12.384630258939 -129.337732221648 -12.925278846206 -124.383705832080 -5.606469449747 -87.313796083612
1.476754000000 -7.859106381467 -146.293861659012 -12.788145592231 -129.355375882035 -12.839360130047 -123.058690493317 -5.566548301465 -88.203420714568
1.488752000000 -7.901820532850 -147.730781484895 -13.013653501693 -127.672771696049 -12.618138204429 -122.483273882685 -5.556473846522 -89.026640175611
1.500750000000 -7.970199764808 -149.300341724023 -12.996260956745 -125.489030203649 -12.364357676828 -122.795157461795 -5.544415732160 -89.618423363648
1.512748000000 -7.961363826774 -151.219462307486 -12.767155129525 -124.304513304755 -12.200169122093 -124.549786785793 -5.555416111551 -90.631190358554
1.524746000000 -7.956352419863 -153.005983809108 -12.440464447614 -124.630323623628 -12.193502700851 -126.959877301000 -5.554093239738 -91.668059331454
1.536744000000 -7.960720590716 -154.554207432710 -12.138231480325 -126.455489504455 -12.407515405992 -128.986746380205 -5.544061592969 -92.812772228280
1.548742000000 -7.994154676002 -155.890067930569 -12.042881606912 -129.432828567273 -12.720023075219 -129.390626173819 -5.499351218365 -93.811485683814
1.560740000000 -8.011637614659 -157.248600037981 -12.217786082782 -132.315023145308 -12.913392561691 -128.195618072551 -5.432626884685 -94.782444606512
1.572738000000 -8.046093001537 -158.688313400790 -12.623393245303 -133.516889227190 -12.855321392456 -126.564579636156 -5.382744622688 -95.726991827418
1.584736000000 -8.097779928637 -160.110007355007 -12.965770438775 -132.383904632274 -12.605633712135 -125.590764801610 -5.364193563892 -96.665416512813
1.596734000000 -8.149518969990 -161.909442819503 -13.060836509654 -130.170394935478 -12.284070244544 -125.926992227133 -5.363552482505 -97.513939177687
1.608732000000 -8.173948009610 -163.700616651251 -12.872793976540 -128.150425891348 -12.017008650045 -127.345404014814 -5.362034384894 -98.341334900255
1.620730000000 -8.157218802989 -165.403107282951 -12.509060840622 -127.504641927737 -11.921636439746 -129.698828527599 -5.362667629274 -99.307491961100
1.632728000000 -8.175757920876 -166.967470200691 -12.115423538453 -128.559462449501 -12.061546191461 -132.068902199529 -5.369994560110 -100.395903266248
1.644726000000 -8.219174787151 -168.424150145385 -11.865332513277 -131.315088475832 -12.371339178633 -133.136377007454 -5.354176283311 -101.412722014116
1.656724000000 -8.274563116310 -169.758145449928 -11.879003265525 -134.653917465703 -12.621993761511 -132.351693993168 -5.311258199586 -102.436747741600
1.668722000000 -8.311989592861 -171.160209181298 -12.206977815650 -136.999994084462 -12.623535684085 -130.588843817787 -5.265632216593 -103.409543717966
1.680720000000 -8.384935399512 -172.750367310774 -12.604022900694 -136.934167476192 -12.380464696972 -129.375145450323 -5.238605619157 -104.392294831077
1.692718000000 -8.461172520663 -174.532414545612 -12.796708592786 -135.044170292176 -12.017880119235 -129.574203164685 -5.236756897592 -105.406685333929
1.704716000000 -8.500129446091 -176.429127244144 -12.666470073918 -132.873840028346 -11.669309184497 -130.984665483575 -5.241927257369 -106.324859166839
1.716714000000 -8.492927803755 -178.244195842028 -12.319202552217 -131.548788475526 -11.491198207274 -133.331761045273 -5.239955028832 -107.156882726320
1.728712000000 -8.489659184038 -179.957699950470 -11.891684601627 -132.088282438307 -11.560762041933 -135.940588413885 -5.248188482449 -108.146522318477
1.740710000000 -8.539622019977 178.609307558789 -11.532799747583 -134.400509590868 -11.851932533900 -137.495694262289 -5.238488503660 -109.136614935463
1.752708000000 -8.603316611791 177.289514011212 -11.429102163455 -137.989038646220 -12.139100965189 -137.173603951900 -5.233531646049 -110.112580611429
1.764706000000 -8.672084084680 176.027822611770 -11.666980491020 -141.107036130341 -12.199615185673 -135.508645565098 -5.180103984783 -111.031755840935
1.776704000000 -8.748535642420 174.414927238483 -12.098634412707 -142.182749444334 -11.999624870060 -134.134161197207 -5.153366245466 -112.083289623870
1.788702000000 -8.849812550761 172.742353914810 -12.388521876662 -140.751150419861 -11.624278329875 -134.186652846889 -5.154389114115 -113.191551309437
1.800700000000 -8.927859341225 170.907589060395 -12.359931962512 -138.430340493552 -11.250078896715 -135.485760538885 -5.176080141299 -114.043993540967
1.812698000000 -8.954826040378 168.996964018742 -12.054476291603 -136.698931276593 -10.967574925838 -137.786194008055 -5.161160362966 -115.000939094709
1.824696000000 -8.963217324081 167.238680383485 -11.593261891342 -136.431693353006 -10.966226512846 -140.448370151118 -5.160502595825 -116.021549351170
1.836694000000 -8.998658563318 165.537228439595 -11.159525408792 -138.151574759497 -11.202038530236 -142.380103805003 -5.171441434236 -116.971773225019
1.848692000000 -9.080526627914 164.020462520172 -10.923806146941 -141.529530265454 -11.484181621109 -142.499838832689 -5.181896774294 -117.925970724646
1.860690000000 -9.164808827293 162.674861489340 -11.019295469803 -145.167423760272 -11.578181823763 -141.158331153118 -5.157645626772 -118.906196088691
1.872688000000 -9.268428503975 161.182079748942 -11.385380396836 -147.195330305877 -11.397536665691 -139.973080166233 -5.120179160892 -119.953848742159
1.884686000000 -9.375165901911 159.362799346493 -11.720152045204 -146.655982342282 -11.025712160208 -139.959876844476 -5.124799156579 -121.038663972697
1.896684000000 -9.479145365360 157.418552758039 -11.772272176769 -144.627850588288 -10.628358344861 -141.459354327647 -5.144224099991 -122.122411728404
1.908682000000 -9.530213250896 155.513629256290 -11.515420118825 -142.767526772757 -10.340638858464 -143.902144245964 -5.143303877196 -123.104274097880
1.920680000000 -9.534228248450 153.676711624364 -11.056239687357 -142.386218765488 -10.297941096854 -146.890622325576 -5.124601926237 -124.050380629230
1.932678000000 -9.579513233759 151.981075108870 -10.569899154142 -143.901465865549 -10.511615463395 -149.222098213941 -5.132751171003 -124.940173281813
1.944676000000 -9.681913133630 150.352804475547 -10.258198927619 -147.353560396990 -10.819309839769 -149.754990072290 -5.156684786815 -125.834514678829
1.956674000000 -9.803612636707 148.924093726775 -10.281693409030 -151.663707887054 -10.979152768769 -148.761194044980 -5.143779278872 -126.604291532065
1.968672000000 -9.917684106791 147.373864578541 -10.672416675301 -154.510362887031 -10.846232011358 -147.476511464562 -5.101003150622 -127.572011773427
1.980670000000 -10.068918208552 145.524056710698 -11.131117764393 -154.529377051663 -10.519984431948 -147.251877059374 -5.109636724095 -128.706156380928
1.992668000000 -10.202965228430 143.453474738738 -11.320494800828 -152.445622163808 -10.120926813608 -148.573739245348 -5.138431162878 -129.871704418417
2.004666000000 -10.288510911410 141.362468575677 -11.138827067552 -150.198078353379 -9.805212551785 -151.018155741854 -5.146174810873 -130.787622680269
2.016664000000 -10.289878885482 139.434408186018 -10.684488788832 -149.159643215893 -9.720462064470 -154.020719600037 -5.143194342123 -131.627610259559
2.028662000000 -10.323200976230 137.587016698303 -10.133739186039 -150.054295127545 -9.856200185538 -156.526923627724 -5.139553609626 -132.576846196869
2.040660000000 -10.428604067981 135.730807062035 -9.698264758120 -153.136313979749 -10.110734460898 -157.328567522790 -5.154373266709 -133.535689339900
2.052658000000 -10.542858448866 134.216440530434 -9.558344880273 -157.511705603271 -10.276549117307 -156.869517214548 -5.163691505077 -134.333937230418
2.064656000000 -10.691244037984 132.725837778257 -9.840016651962 -161.554876789237 -10.201771613634 -155.893209308491 -5.146053344765 -135.174663962557
2.076654000000 -10.832262651384 130.876881875568 -10.353643774384 -162.921101911915 -9.924690628419 -155.674528412679 -5.137134978196 -136.265913815019
2.088652000000 -11.004429151624 128.786364693731 -10.706822702511 -161.507998325990 -9.563652483722 -156.946552346123 -5.182674701993 -137.387156154212
2.100650000000 -11.131968884018 126.729764718075 -10.684018794883 -159.183623685325 -9.291053614356 -159.361551455728 -5.229132658086 -138.166593073897
2.112648000000 -11.173229000025 124.671573519313 -10.311278185960 -157.700924123947 -9.180355112491 -162.578437596801 -5.220161152453 -139.152545129560
2.124646000000 -11.242126338863 122.811180839098 -9.787864235790 -157.851790669940 -9.283495834812 -165.007229090571 -5.213302003452 -140.110925920834
2.136644000000 -11.373501335646 120.698705385700 -9.306374058104 -160.147536133020 -9.487602408398 -166.080092633322 -5.228062503856 -141.225133647308
2.148642000000 -11.527255368952 118.681929998745 -9.064930511594 -164.273900915739 -9.620845411587 -165.866885986726 -5.252438484832 -142.190351493913
2.160640000000 -11.719521212656 116.881435905006 -9.215204194038 -168.449940180851 -9.544849095764 -164.990809811183 -5.244787046689 -142.869027469161
2.172638000000 -11.867162274874 114.861338085659 -9.633676276948 -170.761946937587 -9.294663304153 -165.082243550520 -5.234634941111 -143.971606253614
2.184636000000 -12.045218071675 112.336404060367 -10.015056216020 -170.119952919595 -8.979599063924 -166.407309553468 -5.269815259669 -145.126759859879
2.196634000000 -12.168579674796 109.938509003835 -10.079303301633 -168.232464371255 -8.752428219668 -169.091462796474 -5.335005658386 -146.077129311668
2.208632000000 -12.202517056294 107.823660000646 -9.786915140277 -166.646972610628 -8.665157945752 -172.241863967143 -5.342275193321 -146.978960710813
2.220630000000 -12.238623386829 105.811710668965 -9.308077582273 -166.553919964666 -8.776541269986 -174.736833065745 -5.331751009381 -147.999907540866
2.232628000000 -12.351506697010 103.482334951909 -8.809482617000 -168.361077581648 -8.969296240954 -175.801336072792 -5.319983301691 -149.126866259644
2.244626000000 -12.499387298292 101.421229306918 -8.521490206950 -172.234357278129 -9.103855561718 -175.662364870199 -5.346595041287 -150.086524716620
2.256624000000 -12.671490357865 99.578890359562 -8.570380989598 -176.609951807626 -9.037626596717 -175.166507329127 -5.335301913350 -150.782157074962
2.268622000000 -12.872124124984 97.458242519867 -8.945636361975 -179.459790052667 -8.811622522918 -175.334452494573 -5.320672343230 -151.591271809645
2.280620000000 -13.056614389151 95.004572911863 -9.356709782316 -179.481905680303 -8.523749289328 -176.800626082988 -5.344982525074 -152.672918188634
2.292618000000 -13.233752723137 92.675162926740 -9.526880510172 -177.904276650786 -8.341582698355 -179.131422272891 -5.438830639703 -153.499128812278
2.304616000000 -13.327012618269 90.275344278323 -9.298080770511 -176.271738385963 -8.301322707331 177.987421479008 -5.475243336046 -154.323445980484
2.316614000000 -13.401293076180 87.772619414003 -8.840514839448 -175.819596557861 -8.428543458336 175.633284007825 -5.470454772685 -155.386137214273
2.328612000000 -13.503774752038 85.041336894940 -8.369859811322 -177.481216321892 -8.604817503139 174.604485870787 -5.487585697324 -156.577251345651
2.340610000000 -13.644349951519 82.618049367523 -8.024530983367 178.946702493153 -8.672547961914 174.666065445212 -5.517930241691 -157.681742264188
2.352608000000 -13.824181727663 80.411708511296 -7.989518108449 174.626552945732 -8.580085646757 174.927850823571 -5.507411973917 -158.413069101330
2.364606000000 -14.009077821604 77.999924927578 -8.329959527012 171.425223424948 -8.367174423373 174.520813745320 -5.481297887364 -159.219572344863
2.376604000000 -14.168259243096 75.253251287256 -8.771361653783 170.573377305118 -8.121909313769 173.008181806421 -5.524017301247 -160.227226126356
2.388602000000 -14.323973724460 72.566584865319 -8.975225874060 171.913421468463 -7.965649185557 170.529348858526 -5.594458732783 -161.069248953103
2.400600000000 -14.407517692528 70.060746055430 -8.809770653217 173.628601083333 -7.967239878338 167.702291785382 -5.632493836178 -161.740809842217
2.412598000000 -14.441761663257 67.273491636569 -8.390291579295 174.154407552701 -8.116655949992 165.513417178531 -5.650011328912 -162.711688892226
2.424596000000 -14.497469502453 64.401291905937 -7.896953611451 172.701628015438 -8.282824252775 164.428496796569 -5.651899681752 -164.026974735619
2.436594000000 -14.624980736077 61.786030426037 -7.511804612738 169.253953720248 -8.341423740046 164.381806944053 -5.698043109268 -165.366197816390
2.448592000000 -14.796524949639 59.629048664708 -7.433421668542 164.780586554848 -8.234880992242 164.423184745724 -5.710100860033 -166.119584982106
2.460590000000 -15.000025440907 57.123868103824 -7.748658862619 160.920752283176 -8.032762235394 163.897326467584 -5.687025427128 -166.861836802266
2.472588000000 -15.185284897588 54.012060225388 -8.250507749986 159.632422937211 -7.825644012069 162.221920985731 -5.686693795724 -167.833143950622
2.484586000000 -15.330602539501 51.160313869698 -8.554563302271 160.943198739187 -7.713287710974 159.766908771286 -5.757284170900 -168.569178351643
2.496584000000 -15.432642590988 48.196401322780 -8.479598481836 163.003377612305 -7.756039908733 157.255014570698 -5.810274454870 -169.049871662843
2.508582000000 -15.401396129340 44.824257451701 -8.097326591243 163.883878170386 -7.918046093309 155.473326164838 -5.826517651818 -170.009928815234
2.520580000000 -15.391396245439 41.576388335889 -7.570214196520 162.881439748957 -8.060212551146 154.724350013014 -5.850211029931 -171.252432824358
2.532578000000 -15.498455608793 38.572847099512 -7.114891889841 159.778858321735 -8.073184643723 154.708172395491 -5.921888527901 -172.732590100647
2.544576000000 -15.611241847261 36.079964108609 -6.947530684757 155.307338282291 -7.930661051607 154.396060442650 -5.960281677819 -173.561069623582
2.556574000000 -15.746762405560 33.483358868045 -7.174346876204 150.757363632859 -7.710879312273 153.565551546962 -5.920345715327 -174.242049108309
2.568572000000 -15.849988658560 30.016037172614 -7.670517170037 148.640823279430 -7.511813583881 151.655511603220 -5.908535049465 -175.159884176188
2.580570000000 -15.911742678128 27.019152805883 -8.074728318627 149.342200864880 -7.464839725427 149.051085410653 -5.967356910086 -175.979571381989
2.592568000000 -15.978040790481 23.988478897491 -8.118126352308 151.416688745635 -7.545807019477 146.777049342402 -6.038674603824 -176.443333666873
2.604566000000 -15.909707039241 20.675441231602 -7.769990496860 152.643143969286 -7.722492011372 145.166401079984 -6.053071733911 -177.196485710806
2.616564000000 -15.879273877418 17.552125346869 -7.260918082439 151.996054864377 -7.862375008422 144.656788398419 -6.101631623036 -178.501759906811
2.628562000000 -15.940872732839 14.179707530951 -6.782582307296 148.693226031204 -7.852815439472 144.433464436561 -6.186635323653 179.624189569116
2.640560000000 -16.041012030445 11.394164991632 -6.583500873876 144.703014634776 -7.664683147438 144.162521503311 -6.252349722767 179.235200604713
2.652558000000 -16.076195159360 8.323865940081 -6.749904995401 139.782134395448 -7.429913691334 142.783755855491 -6.227301824243 178.461387756775
2.664556000000 -16.089547653528 4.679976222896 -7.270589073980 137.082462769902 -7.262889956705 140.526400025983 -6.203719376947 177.414191382338
2.676554000000 -16.059949884612 1.571131202068 -7.785140779876 137.545057247653 -7.260699376847 137.789587461184 -6.260404575911 176.460002729613
2.688552000000 -16.017130336087 -1.389505118706 -7.907767575753 139.767365602069 -7.406682006135 135.555113657855 -6.304034904366 175.971090215386
2.700550000000 -15.854818431629 -4.075947147714 -7.620036847588 141.640713125262 -7.620899605523 134.340750546644 -6.323913796404 175.276438290020
2.712548000000 -15.759763146053 -7.269244193117 -7.074624629022 141.553253537835 -7.765236277110 134.200052851509 -6.336762980332 173.928606548322
2.724546000000 -15.755668040425 -10.246103413037 -6.545962815836 139.076854216221 -7.719529099192 134.406373154528 -6.438141918211 172.463218368039
2.736544000000 -15.823665179263 -12.783721560440 -6.240074318041 134.506367502078 -7.518826366790 134.097766078197 -6.546407853401 171.598872947415
2.748542000000 -15.810835237007 -15.324352382935 -6.312761682834 129.137808525894 -7.250788390692 132.666510198704 -6.543385253241 171.007201897036
2.760540000000 -15.724018967676 -18.594127026215 -6.821166377184 125.491485874222 -7.064664048833 130.122680078671 -6.484451281511 170.007817120138
2.772538000000 -15.663014077857 -21.695552522398 -7.433252428492 125.246015074490 -7.060659518117 127.216946965368 -6.513417202632 168.959348897107
2.784536000000 -15.608190474794 -24.416400207941 -7.693755083327 127.591124129434 -7.246746075873 124.870655302091 -6.576696746968 168.452586125672
2.796534000000 -15.449530869735 -27.132731379418 -7.491353669889 130.068337513652 -7.484739537067 123.839379497602 -6.597068642148 168.016200428784
2.808532000000 -15.281708124160 -30.083793395923 -6.966324504810 130.681921875774 -7.617460416333 123.960957022195 -6.620297886472 166.901821851463
2.820530000000 -15.239571162796 -33.026923000802 -6.379640998290 128.667965183493 -7.551199838055 124.243831181568 -6.742018597371 165.414705623046
2.832528000000 -15.285856880078 -35.422538558446 -5.951322349984 124.390001743619 -7.315277486006 123.948417499640 -6.887495758756 164.559369909640
2.844526000000 -15.211856939477 -37.474222676193 -5.885203049836 118.803517082658 -7.016169602445 122.317456452448 -6.927486438037 164.123847047008
2.856524000000 -15.009583323089 -40.055269089897 -6.298681298952 113.998381601227 -6.821936051718 119.496006798640 -6.861758753027 163.266780355083
2.868522000000 -14.886266169696 -42.897918151539 -6.991523204137 112.309153829593 -6.870742330619 116.315669244313 -6.879208754713 162.040525987368
2.880520000000 -14.830370904025 -45.311620923544 -7.458450566111 114.051173567204 -7.106925451975 113.976515693919 -6.967808926163 161.413730091923
2.892518000000 -14.669667769188 -47.342277000578 -7.450519484226 117.106938832049 -7.372223889161 113.199282494055 -7.006054781704 160.984641447110
2.904516000000 -14.520634421832 -49.816481549757 -7.020773924115 118.768874160192 -7.511367619531 113.613499984810 -7.042045253754 159.898182585762
2.916514000000 -14.472735460602 -52.560126967801 -6.410164209725 117.703489521711 -7.406866368390 114.348757092531 -7.169043753693 158.574694448241
2.928512000000 -14.559836534629 -54.814480108149 -5.908207840966 114.204174623721 -7.111498393216 113.974730502856 -7.353555064975 157.490239638888
2.940510000000 -14.464468584382 -57.138272806631 -5.721798483895 108.949734049053 -6.769631502785 112.170750205399 -7.405642909671 157.122894448405
2.952508000000 -14.189525477207 -59.080872951308 -5.998251138935 103.583685752370 -6.558496529600 109.006244006433 -7.347890299454 156.304586206269
2.964506000000 -14.026908630400 -61.734719911029 -6.648524652725 100.677977377474 -6.608303285646 105.277677788703 -7.329872580571 154.860192800849
2.976504000000 -14.010737730445 -64.040081195094 -7.209333309012 101.852046198630 -6.888844065294 102.589899507919 -7.417972488491 153.899629469520
2.988502000000 -13.858752258424 -65.816077963449 -7.337143317763 104.818571338567 -7.218910517052 101.731789116159 -7.458355321488 153.500965566256
3.000500000000 -13.683808147068 -68.191931518046 -6.986685012509 106.882500955826 -7.400602939694 102.263359559763 -7.467886670911 152.419008241295
3.012498000000 -13.611403550440 -70.766987271763 -6.387388948860 106.683274368500 -7.295481377421 103.254459961400 -7.541298718301 151.027850268674
3.024496000000 -13.639064872057 -72.862974473077 -5.815368220632 103.906431156870 -7.008415792091 103.133912529664 -7.725558497537 149.881259060315
3.036494000000 -13.573698641980 -74.205774905505 -5.500556782884 98.808420536622 -6.666587886720 101.472980137842 -7.849060380851 149.467597004607
3.048492000000 -13.303028914192 -75.414238421216 -5.614460885314 93.045418561939 -6.395814072340 98.332873022063 -7.791426554376 149.050222385050
3.060490000000 -13.049952091044 -77.536860498350 -6.154997062355 88.823099379170 -6.415816574365 94.524887818896 -7.743307948810 147.638734728461
3.072488000000 -13.049728422855 -79.510726549505 -6.821847082866 88.326887848798 -6.701094927942 91.536077906722 -7.826690560306 146.430282979300
3.084486000000 -12.980183174453 -80.847084175281 -7.170463349823 90.719421432936 -7.098421890902 90.620557245120 -7.904802465930 145.974071477827
3.096484000000 -12.840303894054 -82.573549804765 -6.985024221277 93.386694683898 -7.321002296893 91.255044589559 -7.921964189509 145.274581807896
3.108482000000 -12.788685376623 -84.929805730146 -6.461443123054 94.159531400748 -7.231451715379 92.535568974214 -8.006893941966 143.826228484022
3.120480000000 -12.863158679787 -86.921384317031 -5.875327623782 92.239300776656 -6.908931066059 92.799881745647 -8.182787016581 142.836689306971
3.132478000000 -12.872306926620 -87.984013304537 -5.483977400554 87.911748193054 -6.500482127569 91.347231667651 -8.348059041572 142.627363837550
3.144476000000 -12.638680343707 -89.178579396655 -5.476558806143 82.314181168568 -6.190731352731 88.157729672147 -8.349588745096 142.509086748701
3.156474000000 -12.340474708494 -91.465495403890 -5.917050148444 77.361312423928 -6.130831445504 83.910559739446 -8.306358236981 141.192338696791
3.168472000000 -12.263740486529 -93.669739894434 -6.581499366375 75.696482255096 -6.412797717045 80.429148676434 -8.426473172431 139.668697305531
3.180470000000 -12.224203134256 -95.010843965250 -7.059202370848 77.351185662785 -6.834465196306 78.976613732500 -8.571430612442 138.758775392332
3.192468000000 -12.094271068924 -96.129098104419 -7.052381963395 80.097509760807 -7.140312806272 79.638265165799 -8.615891379359 137.951614624147
3.204466000000 -12.020483884984 -97.803642110012 -6.628098659716 81.699003130999 -7.119828512374 81.034105416021 -8.679762504612 136.640029284582
3.216464000000 -12.085209315900 -99.499284582145 -6.050578970617 80.720784909629 -6.833477766744 81.497316941134 -8.841943949259 135.124356907318
3.228462000000 -12.143198667457 -100.455557177931 -5.571141830152 77.224107057644 -6.414970140631 80.238149275285 -9.043927151000 134.671826280697
3.240460000000 -11.998531860354 -101.466049593600 -5.421637866645 72.002642232842 -6.073730371204 77.332760314536 -9.089979331491 134.506501679429
3.252458000000 -11.724462743336 -103.458615462104 -5.701102935928 66.764098476952 -5.974838624899 73.192563540566 -9.030500293214 133.452950172291
3.264456000000 -11.620012088703 -105.903859870972 -6.303792021548 63.914405075024 -6.210550207533 69.402553779674 -9.115772021183 131.650621638026
3.276454000000 -11.641731499694 -107.572338361237 -6.846705481482 64.146941839666 -6.633432610677 67.558772194734 -9.277434298670 130.469317198008
3.288452000000 -11.572470609287 -108.412172357047 -7.031946966418 66.538157665053 -6.981825975893 67.824015483179 -9.349216760573 129.725448893670
3.300450000000 -11.483068562671 -109.617799429025 -6.759235984247 68.687102918223 -7.026286781821 69.242985531542 -9.371428092001 128.401196172157
3.312448000000 -11.528956629988 -111.331581649826 -6.233735808514 68.480157205910 -6.756746477702 69.822606570889 -9.515959316115 126.869536951812
3.324446000000 -11.612989857990 -112.372230364957 -5.751771883360 65.782386788636 -6.367699896077 68.902474373164 -9.695165386069 126.117232122613
3.336444000000 -11.533872977996 -113.213570327314 -5.515136002945 61.305507948776 -5.994982554613 66.151251023123 -9.738234306464 125.906262655750
3.348442000000 -11.276540900732 -115.065379263088 -5.665567909860 56.228180639421 -5.846617956597 62.094129432797 -9.691642474681 125.197065817453
3.360440000000 -11.145938339584 -117.653015872741 -6.168755016587 52.678781883347 -6.045018079984 57.904762238410 -9.720160343907 123.524738022668
3.372438000000 -11.176784814227 -119.516661202333 -6.712547317720 52.124225915600 -6.456966674125 55.751730960284 -9.888999348441 122.305619481844
3.384436000000 -11.151840229569 -120.240278019258 -6.992920848965 53.755319956913 -6.830438693161 55.699527797397 -9.994442294503 121.656246983231
3.396434000000 -11.084547742064 -121.272377376162 -6.871057618189 55.826705216833 -6.958525754408 57.064482026764 -10.040367631786 120.620026448671
3.408432000000 -11.103159051144 -122.760610647160 -6.427401936547 56.228906836049 -6.740641407246 57.982316626204 -10.157980601480 119.307952367512
3.420430000000 -11.189349244336 -123.776489735291 -5.946928885756 54.455933515133 -6.353203842911 57.434201823789 -10.347259905888 118.367393972057
3.432428000000 -11.145510641308 -124.654259544429 -5.648059910428 50.581189749517 -5.962104598861 54.968943271157 -10.465227683839 118.276178052848
3.444426000000 -10.925138549186 -126.272881504384 -5.685274120242 45.867545665292 -5.760015820412 50.989505532984 -10.453963457941 117.656840398808
3.456424000000 -10.784523228246 -128.775925125382 -6.063603072909 41.892171085463 -5.846922017912 46.774368259559 -10.483842650072 116.183568004074
3.468422000000 -10.814811417084 -130.807028634866 -6.555760758196 40.455938479097 -6.217008490900 44.130496466911 -10.691843812918 114.721682289578
3.480420000000 -10.810766684111 -131.520614900660 -6.922196509932 41.222739892738 -6.597129034683 43.430430732101 -10.861454148184 113.874537302360
3.492418000000 -10.759911575038 -132.117039111031 -6.918499384362 42.894824533085 -6.797159211178 44.423239760179 -10.947445723025 112.872201281821
3.504416000000 -10.774910321650 -133.236784657595 -6.603477206020 43.718437620824 -6.681603748903 45.288682425082 -11.063327101444 111.304469117531
3.516414000000 -10.898239248122 -134.268694741850 -6.157719658377 42.601213902864 -6.324260507455 44.960768614471 -11.229145287157 110.080866205069
3.528412000000 -10.937476262956 -135.260416166686 -5.847061538488 39.552816955517 -5.966758938444 42.781500730612 -11.344215267801 109.488201794418
3.540410000000 -10.779484476143 -137.096795133580 -5.775703611596 35.312348637017 -5.763590699936 39.156711978303 -11.357130775796 109.091862537770
3.552408000000 -10.663746993503 -139.751059685820 -6.037706459940 31.570546622765 -5.841156726643 35.096605893257 -11.397350846585 107.788369264412
3.564406000000 -10.683554993819 -141.925584102339 -6.426843511431 29.283579430053 -6.145391691726 32.365697522877 -11.590069309623 106.321179070656
3.576404000000 -10.661056704249 -143.087430556961 -6.784065558887 29.264030247507 -6.499477993482 31.401257004270 -11.798303524621 105.122494114501
3.588402000000 -10.623928207252 -143.604576543470 -6.884201908070 30.449496011918 -6.705279399756 32.069345005464 -11.887002913383 104.020502596020
3.600400000000 -10.612178255122 -144.604762283047 -6.697833058982 31.150145282471 -6.610978889462 33.002336523534 -11.972326087882 102.472625039785
3.612398000000 -10.677882322674 -145.778556719823 -6.329421399872 30.385771641759 -6.316193110030 32.716411750121 -12.105728415040 101.307885238927
3.624396000000 -10.732378814513 -146.688174624301 -6.019533488581 27.882870735067 -5.973014854817 30.752927796658 -12.246889752343 100.808941511414
3.636394000000 -10.609490589795 -148.242477841906 -5.907304085001 24.149159000889 -5.750041016506 27.255241964955 -12.247576077427 100.327285847988
3.648392000000 -10.500285495199 -150.734014386626 -6.089280389095 20.613074873111 -5.799291139605 23.217730791537 -12.274823721637 99.081319820999
3.660390000000 -10.528695433774 -152.879303062055 -6.405329434638 18.247400399405 -6.077716597941 20.108167459816 -12.453908924993 97.896023154942
3.672388000000 -10.534458769063 -154.076927243078 -6.722087389262 17.698836058929 -6.440260843345 18.817015910110 -12.683787039643 96.771273408724
3.684386000000 -10.531704338224 -154.408680538298 -6.876975823893 18.049888284076 -6.691942121766 18.975770589126 -12.814371384523 95.708776098065
3.696384000000 -10.528266444430 -155.111671409887 -6.743212780239 18.655642382551 -6.689264163072 19.737225607727 -12.932824613758 94.237223637791
3.708382000000 -10.611149568122 -156.210402871812 -6.464765238124 18.003812774715 -6.467323078213 19.795612183016 -13.056381851099 92.927673859691
3.720380000000 -10.670167501342 -157.403997543134 -6.184006284281 15.921297904848 -6.159681261539 18.175451665902 -13.184884569745 92.254622013667
3.732378000000 -10.676460163582 -159.178405484455 -6.051339677912 12.740014406069 -5.951269137031 15.305818483889 -13.250115831130 91.568821858950
3.744376000000 -10.625235291886 -161.644695009163 -6.145501283077 9.441048047612 -5.963596826124 11.825888118855 -13.291982071350 90.701148139640
3.756374000000 -10.636185057715 -164.097311291524 -6.412052783089 6.990164979258 -6.170691919641 8.847215382446 -13.481921554389 89.681894232431
3.768372000000 -10.636311784305 -165.826628673188 -6.684915247993 6.086050704831 -6.466232293999 7.473051421698 -13.755269862038 88.587448490145
3.780370000000 -10.582503686978 -166.582211954209 -6.860087380565 6.016513715421 -6.638827575938 7.472963760900 -13.932832763640 87.370537321039
3.792368000000 -10.539768924213 -167.244264575353 -6.808100234804 6.224892596630 -6.597717324531 7.825900668566 -14.062773693782 85.692757958092
3.804366000000 -10.565040961968 -168.118517241924 -6.594133499658 5.732535254122 -6.375768772923 7.482855902728 -14.187397327281 83.990541851800
3.816364000000 -10.654271139301 -168.942092349204 -6.365603805581 3.982902586089 -6.092834521989 5.806784128548 -14.264906348346 82.976702168177
3.828362000000 -10.616680582535 -170.276875100600 -6.197466099658 1.295014001918 -5.894619696977 2.746856021462 -14.255152735494 82.381180047766
3.840360000000 -10.628471064714 -172.388331323224 -6.237857721675 -1.662278433480 -5.931864567535 -0.907508652701 -14.279647217007 81.301934096175
3.852358000000 -10.731130296203 -174.835490244639 -6.439102368363 -4.121341269495 -6.175069938347 -3.739005187521 -14.444786171905 80.439739719797
3.864356000000 -10.813903585895 -176.753471998026 -6.672663473704 -5.406740668288 -6.491900452956 -5.231932635755 -14.742664373866 79.916140280581
3.876354000000 -10.810223521184 -177.863227976604 -6.821913101582 -5.641650533262 -6.689291324777 -5.476283601645 -14.965345235277 78.587174080880
3.888352000000 -10.754419741617 -178.987212910674 -6.810894277970 -5.952786387833 -6.682757299239 -5.019302205431 -15.109836575606 76.959797298556
3.900350000000 -10.753456734756 179.802865762517 -6.666867640037 -6.536926237202 -6.478661441756 -5.299467758137 -15.217517942486 75.250946323807
3.912348000000 -10.790176654138 178.602218505109 -6.480896359696 -8.153188296201 -6.185196770976 -6.815039555108 -15.284189923073 74.076481381618
3.924346000000 -10.775164956449 177.308081209871 -6.346723809958 -10.437830798712 -6.001772836148 -9.643192667086 -15.255798077747 73.533905199310
3.936344000000 -10.778285254897 175.288975420931 -6.363952781562 -13.174373827152 -6.022083705216 -13.129182604987 -15.268949024323 72.655955586543
3.948342000000 -10.879068184823 173.118808542663 -6.518242683968 -15.521989558143 -6.268804889369 -16.052040497400 -15.380427554963 71.719124621910
3.960340000000 -10.959587711196 171.143794828071 -6.687498276327 -16.960422554847 -6.557922139939 -17.693530303026 -15.607734433155 71.610922435802
3.972338000000 -10.962938847260 170.140124830555 -6.839316128338 -17.611594833397 -6.754384102168 -18.151341234536 -15.895453459359 70.804872981515
3.984336000000 -10.905092492586 168.953963102280 -6.851253770537 -17.997689142372 -6.780579966969 -17.884907210916 -16.061332005913 69.279547824403
3.996334000000 -10.894417905300 167.892149717466 -6.748273155534 -18.708324254616 -6.600698260412 -18.088288002065 -16.200584022854 67.734560171615
4.008332000000 -10.932845172560 166.823308658254 -6.585357318253 -20.229472026137 -6.341808354898 -19.610030137045 -16.263786414832 66.294447179364
4.020330000000 -10.959010715971 165.465377872516 -6.469737358034 -22.421574133414 -6.177756318444 -22.320856982910 -16.236843709637 65.129192304563
4.032328000000 -11.003800758142 163.541043729322 -6.479789248906 -24.981955212671 -6.211002387461 -25.763776679600 -16.236622835487 64.384857447475
4.044326000000 -11.160538627193 161.339392570937 -6.607185974539 -27.189046550971 -6.458111793950 -28.558541792057 -16.394458374082 63.657280159529
4.056324000000 -11.291391052102 159.380694077590 -6.746216503202 -28.773928456207 -6.763424435726 -29.839108863331 -16.612514518336 63.771345124844
4.068322000000 -11.325804726909 157.978778814604 -6.878820639580 -29.652859344440 -6.960748369194 -30.108414218222 -16.919818299084 63.638028567357
4.080320000000 -11.235132854401 156.413956646946 -6.915510555059 -30.122292109433 -6.963681132025 -29.706124121349 -17.149961070777 61.761995909013
4.092318000000 -11.195887705372 154.969378344459 -6.837286995976 -30.875659037144 -6.756011056938 -29.778867190047 -17.371275830979 59.727238528976
4.104316000000 -11.223883775270 153.599991805764 -6.695848383479 -32.336762253242 -6.470313911588 -31.243020184825 -17.487162202396 57.433300395372
4.116314000000 -11.210616627687 152.432045364341 -6.598490558060 -34.279710269985 -6.244173109804 -34.050239892975 -17.387710123534 55.657479584438
4.128312000000 -11.262928182983 150.576272603994 -6.597518189424 -36.782707971177 -6.238548378561 -37.722287778210 -17.249690178013 54.378212999488
4.140310000000 -11.375487867877 148.532932092425 -6.693395872554 -38.955567150458 -6.454040501739 -40.892944601395 -17.207818201465 53.649127594564
4.152308000000 -11.526281020413 146.663666783576 -6.820231465659 -41.026644157137 -6.783186946973 -42.501666045734 -17.314577762515 53.949507512946
4.164306000000 -11.521458221882 145.737395267100 -6.939833783915 -41.372063939437 -7.035335738592 -43.076041224652 -17.483345819317 54.478462052638
4.176304000000 -11.457543014927 144.649374460709 -6.994584102213 -42.105514565801 -7.092076211200 -42.570728743829 -17.665412841103 53.723647202553
4.188302000000 -11.466962725520 143.380400168961 -6.944524852278 -42.715218111573 -6.955621600940 -42.363228261757 -17.902093633763 52.422561153893
4.200300000000 -11.592302739244 142.081430940742 -6.825656166380 -43.881158992364 -6.718065893281 -43.392503605182 -18.029390415330 50.547729219074
4.212298000000 -11.695275417639 140.305794024847 -6.700557486150 -45.756365801970 -6.491476464290 -45.956571599033 -17.990310656513 48.984909133418
4.224296000000 -11.766111193560 137.755581117977 -6.679178999317 -48.224939363470 -6.474345720100 -49.318622186575 -17.835960871962 47.771269446251
4.236294000000 -11.826051016852 135.038939262820 -6.731101280029 -50.424718310767 -6.657062855752 -52.416144686037 -17.782354871231 47.099340096198
4.248292000000 -11.889818314465 132.875291700617 -6.862988343304 -52.251908677224 -6.959989074109 -54.206739646941 -17.820123000337 47.371409350257
4.260290000000 -11.878503170669 130.907763036464 -6.969018692559 -53.717354347370 -7.171663058783 -54.811449939864 -17.862518554560 48.000289543600
4.272288000000 -11.764407538447 129.138116062768 -7.046509479428 -54.772286466631 -7.240334467896 -54.680920542297 -18.052112725847 48.670136110500
4.284286000000 -11.702837835001 127.580632425191 -7.040663464278 -55.770498422512 -7.099737850491 -54.731243694855 -18.405635530008 47.643214507108
4.296284000000 -11.709711185342 126.036217474360 -6.938690421516 -57.068806137573 -6.832423893833 -56.165152912757 -18.695463960088 45.398135696125
4.308282000000 -11.775653944820 124.927192919235 -6.816945870695 -58.994820901876 -6.636315486791 -59.054717730809 -18.806262196080 42.547031706935
4.320280000000 -11.859338101730 123.309687584483 -6.767243498791 -61.257508069196 -6.623022945055 -62.561401921489 -18.620161281248 39.358694645961
4.332278000000 -12.016044847449 120.882506810608 -6.811067333621 -63.563246910341 -6.834689823280 -65.707568279534 -18.380456773669 37.659750905072
4.344276000000 -12.277523053180 118.758021294982 -6.953196095475 -67.146429678661 -7.148536062441 -67.156100066495 -18.266332216643 37.994647300959
4.356274000000 -12.249237234671 116.611850010461 -7.071282993404 -66.927126204679 -7.451059492057 -67.747339822847 -18.171237752285 39.371293262781
4.368272000000 -12.126632963645 114.558312494803 -7.162208984362 -67.778362407056 -7.528553892378 -67.238571322395 -18.266359900326 40.513830808349
4.380270000000 -11.977726237887 112.664733131934 -7.156954754169 -68.671768162560 -7.398401857329 -66.776822787358 -18.487706591206 40.615547712787
4.392268000000 -11.958243027841 111.029558732332 -7.070605460343 -69.666586890891 -7.096955388674 -67.904705177197 -18.737595780746 38.929103718218
4.404266000000 -11.987645139385 109.885601887230 -6.930099942247 -71.182256692725 -6.840119993960 -70.312012853633 -18.821242521088 36.785249654056
4.416264000000 -12.028790931778 108.448439151567 -6.859158611387 -73.285846125148 -6.786874386478 -73.920220742053 -18.684833863141 34.134942355565
4.428262000000 -12.147926741027 105.718469659967 -6.890283308448 -75.624416456692 -6.988882029823 -77.297611276167 -18.410588122140 32.281833254500
4.440260000000 -12.325573388892 103.428150056735 -6.997417090046 -77.832278275594 -7.300252331988 -79.276834110962 -18.171193501740 32.181345668890
4.452258000000 -12.360881617927 101.345411919930 -7.135405971208 -79.681448468900 -7.616989858678 -79.593665153228 -18.031109868625 33.684534485611
4.464256000000 -12.238366757189 99.413039733696 -7.264361039138 -80.899142750504 -7.722126027322 -79.143543654636 -17.955995558758 35.406265956462
4.476254000000 -12.069963124732 97.439551384613 -7.305975518347 -81.711712070190 -7.586183033287 -78.741260613296 -18.032714977309 36.097966927559
4.488252000000 -12.040298609769 95.467326935198 -7.271670909866 -82.425769523032 -7.285666628696 -79.545299735435 -18.221455354544 35.711479754781
4.500250000000 -12.040228318428 93.897384910875 -7.180341033212 -83.505632824380 -6.970543010169 -82.064691954494 -18.408043323026 34.681419125571
4.512248000000 -12.046241513892 92.576140684044 -7.069814478948 -85.564304629641 -6.930836812337 -85.768016405211 -18.474714149147 32.657512807825
4.524246000000 -12.135546801858 89.924877434603 -7.019011868645 -88.030705917123 -7.136655602280 -89.308175480032 -18.341069617457 30.496553261341
4.536244000000 -12.282621672956 87.425890724232 -7.111790381770 -90.424390947132 -7.529063842034 -91.500392343122 -18.179461662965 29.374477137578
4.548242000000 -12.249172877698 85.182586901527 -7.254538604850 -92.375752983374 -7.850882383568 -91.736832839479 -18.008085485824 29.972828509142
4.560240000000 -12.080588805499 83.496079936114 -7.410853980327 -93.940792083362 -8.003371275275 -90.924808009933 -17.848128058057 31.107455544402
4.572238000000 -11.852717027543 81.341753274887 -7.497542330706 -94.762208361722 -7.905561895892 -90.051312156140 -17.749582155882 31.407668182900
4.584236000000 -11.763303945736 79.143858472669 -7.509661687591 -95.154623040323 -7.565784676617 -90.639269330828 -17.799201863798 30.926113536502
4.596234000000 -11.764103709114 77.555831226372 -7.468065244881 -96.127479135265 -7.205827785107 -93.087005577413 -17.935325174928 30.115855246963
4.608232000000 -11.718040247411 76.655794987255 -7.301890176756 -98.052585823373 -7.024528797657 -96.871725310139 -18.000536945570 29.172461966616
4.620230000000 -11.782798928170 74.627721275589 -7.190076869997 -100.224516877553 -7.184880135307 -100.833258958488 -17.920711172044 27.278937279927
4.632228000000 -11.867599333206 72.059971403781 -7.228804661701 -102.713436312828 -7.549812587934 -103.608481598775 -17.768167310538 25.447467895270
4.644226000000 -11.880232209669 69.678901918077 -7.402404914944 -105.143185824891 -7.938914287470 -104.192846213241 -17.653241000503 25.084421584597
4.656224000000 -11.721488364282 68.195428737254 -7.574383612000 -106.810042909518 -8.124595264191 -103.428812828597 -17.309896816409 25.190769736090
4.668222000000 -11.433666158151 65.880022792285 -7.736388414153 -107.720306019388 -8.069965237849 -102.278101786669 -16.994886436385 25.509060941335
4.680220000000 -11.311464621142 64.053816684617 -7.842026328423 -108.031432010037 -7.730046059409 -102.601090236347 -16.880688662700 25.588199381026
4.692218000000 -11.293366416476 62.788960951868 -7.758254555205 -108.706440027336 -7.370128454306 -104.689185570720 -16.977109440712 25.413311583016
4.704216000000 -11.287035822528 62.512969757537 -7.584439757920 -109.805711616778 -7.168640217139 -108.461047675560 -17.017573112048 24.727398176502
4.716214000000 -11.342018249000 60.944793835535 -7.419277321944 -111.877100887804 -7.259521254870 -112.891067860735 -16.891941696587 23.549588604338
4.728212000000 -11.373403441990 58.366538690491 -7.395527958505 -114.540788986777 -7.604464926652 -116.191331167097 -16.719765207477 22.150460081665
4.740210000000 -11.418324496285 55.558825089346 -7.502385843436 -117.454449746132 -8.043349260289 -117.495201567847 -16.522721419731 21.508226469185
4.752208000000 -11.313189062713 53.717980538684 -7.708235784693 -119.445928604321 -8.327779460014 -117.034729623795 -16.203131806699 21.842416167693
4.764206000000 -11.055307727291 51.523172767659 -7.945939355794 -120.631262970481 -8.321952325183 -115.491176160724 -15.998936457599 22.254021765284
4.776204000000 -10.797867991618 49.437336664959 -8.102609204973 -121.030079227816 -8.009453928004 -114.965070858425 -15.828657493018 22.383570790469
4.788202000000 -10.678203642048 48.079202731108 -8.101933000460 -121.297945189826 -7.557547035725 -116.332330040676 -15.836805175490 22.229736978252
4.800200000000 -10.627151155648 47.878140669691 -7.928386609312 -121.913022712759 -7.210300790897 -119.926664304527 -15.856202751315 22.210216403146
4.812198000000 -10.606574237666 47.456946191920 -7.688857783047 -123.632527220917 -7.212638281583 -124.721125682296 -15.801239633771 21.497583953046
4.824196000000 -10.570145675082 45.687643318473 -7.571502475528 -126.433885147078 -7.605863367475 -129.095029932957 -15.718052784499 20.155391524481
4.836194000000 -10.669146817879 43.543291051436 -7.602548166709 -129.880073976220 -8.188025533676 -130.948144283831 -15.631449463292 18.840222839023
4.848192000000 -10.649827685563 42.007644589003 -7.795295545217 -132.599108758228 -8.633995802722 -130.527668640511 -15.457703769123 18.165658325638
4.860190000000 -10.509164272836 40.301221744011 -8.112089371884 -134.335716907151 -8.732155627874 -128.571722603393 -15.213134688455 18.101315503270
4.872188000000 -10.313372237559 38.272701292669 -8.396500963142 -134.858030961091 -8.410510608999 -127.203779719763 -15.003604207391 17.545306665721
4.884186000000 -10.179519965855 36.085132986369 -8.474634672507 -134.869471356418 -7.897300507147 -128.117353742719 -14.889047805458 16.432831893781
4.896184000000 -10.123765883618 35.277576144421 -8.379458704023 -134.617229448222 -7.464182401537 -131.158194852822 -14.883976530129 15.913291022180
4.908182000000 -10.046401503836 34.879019705696 -8.112146581696 -135.526937447519 -7.366087821228 -136.120576073019 -14.773654691677 15.689852791426
4.920180000000 -9.924531023443 33.229952480414 -7.899535283952 -138.150724361914 -7.671457489906 -141.180055416141 -14.622171037844 14.844882071118
4.932178000000 -9.889998766159 31.357410294505 -7.820447609697 -141.608222926536 -8.275804755479 -143.730931578140 -14.516162938469 13.659845513118
4.944176000000 -9.880467619817 29.850605483306 -7.986536543783 -144.987105820095 -8.825675083903 -143.525984189798 -14.406786198009 12.738140088292
4.956174000000 -9.741134988240 28.746010327665 -8.324254211883 -147.195861345307 -9.031467229242 -141.520009498504 -14.175247879794 11.632291781896
4.968172000000 -9.562312024291 27.334510884692 -8.663894391784 -148.193557155670 -8.774589050066 -139.510113814036 -13.902252410119 10.640463640678
4.980170000000 -9.467193069553 25.399720412669 -8.863121892413 -147.691572567162 -8.241644051976 -139.683096944964 -13.725186415411 9.311373486648
4.992168000000 -9.426409994616 24.331243122928 -8.784522062882 -147.010806505319 -7.684436932902 -142.821821156733 -13.646689947714 8.451012456621
5.004166000000 -9.373344595009 24.168994564820 -8.559388895537 -147.268973087446 -7.476510144398 -147.863344139995 -13.479081231151 9.110048044947
5.016164000000 -9.245214297131 22.938048860082 -8.248295696563 -149.206911141649 -7.713484812771 -153.350571961428 -13.282383147371 9.085362199563
5.028162000000 -9.172749682657 21.232045946115 -8.040584569521 -152.622195844694 -8.316318560822 -157.086071559314 -13.172730479966 8.348303738676
5.040160000000 -9.205694507008 19.674846232125 -8.111383702946 -156.759773957862 -9.004786288729 -157.460308515764 -13.171443689442 7.664865670062
5.052158000000 -9.101106436132 18.711801633078 -8.416067984277 -160.202575430613 -9.380064286933 -155.440938201995 -13.070126356986 6.838443847345
5.064156000000 -8.909909297814 17.450332417063 -8.852640158736 -161.867491864880 -9.274047807826 -152.690899135387 -12.846946542064 5.560787133662
5.076154000000 -8.750649134966 15.865847830901 -9.167634032060 -161.766997083363 -8.797944828969 -151.862525439266 -12.668512459880 4.223483628515
5.088152000000 -8.749916157655 14.664161689732 -9.288967826543 -160.744443539303 -8.113001914121 -154.275593940792 -12.568779245533 3.204076011566
5.100150000000 -8.703768983474 14.464824542870 -9.128003670620 -159.991072404868 -7.716317232013 -159.281162228125 -12.426993580380 2.802963780896
5.112148000000 -8.596598367781 13.931658515935 -8.787510450079 -160.926567131611 -7.827881793198 -165.252463818920 -12.221760643821 3.157462871781
5.124146000000 -8.508644170838 12.458926645713 -8.483840154725 -163.603258810781 -8.393170340110 -169.997328823866 -12.114921488280 2.793534954183
5.136144000000 -8.559210179875 11.004569342095 -8.390178023068 -167.807943195049 -9.165898534355 -171.526367208702 -12.150537169800 2.221916969092
5.148142000000 -8.513258609427 9.687721815738 -8.637074277678 -171.901079814858 -9.765118853308 -169.607592919560 -12.201824755522 1.180647927867
5.160140000000 -8.380994655920 8.601866817302 -9.066109279780 -174.620145283843 -9.856068589386 -166.212232499627 -12.050475091840 -0.351709378836
5.172138000000 -8.215409008235 6.920323412481 -9.518550966022 -174.958915427858 -9.369359403213 -163.763526112791 -11.885967326154 -2.431707507391
5.184136000000 -8.114940250285 5.341429801517 -9.748168540999 -173.673500330075 -8.665051678180 -164.724080379946 -11.766942951016 -4.153661492546
5.196134000000 -8.061652031777 4.967018090400 -9.644843058456 -172.320256501719 -8.038813044996 -169.212946689962 -11.544942050125 -4.635254959289
5.208132000000 -7.952766093121 4.773627475421 -9.324724592898 -172.201266407624 -7.892015283280 -175.829973242178 -11.350449995779 -4.559748898763
5.220130000000 -7.819578914097 3.798366093687 -8.917077487704 -174.198120487163 -8.332483326736 178.197433250688 -11.109817242621 -4.812289920322
5.232128000000 -7.801178119248 2.417343626327 -8.688454281328 -178.270709141034 -9.154939179395 175.091181327232 -11.072711209939 -5.420125044501
5.244126000000 -7.835913721011 1.224524312288 -8.834783797160 176.833049422485 -9.925588697741 175.675994799647 -11.172323576832 -5.963421493245
5.256124000000 -7.757237831457 0.128673830899 -9.255169357602 173.318675210391 -10.277321441920 179.138774560045 -11.122758437428 -7.733929434191
5.268122000000 -7.590734909064 -1.328217804626 -9.822022363949 172.174447664851 -10.042741992620 -177.276967957444 -10.980519228526 -9.698716682643
5.280120000000 -7.449989258612 -2.800470552881 -10.213605705644 173.165684372737 -9.238894954367 -176.863692359801 -10.792678383331 -11.891796529113
5.292118000000 -7.431300571918 -3.406276948821 -10.244524297838 175.279961026040 -8.521590794995 179.510701428681 -10.632240307680 -13.085971220949
5.304116000000 -7.384905952510 -3.232560593571 -9.939252424877 176.788139668497 -8.220674252722 172.893733520726 -10.367317838346 -13.097959715132
5.316114000000 -7.274296765937 -4.187615348573 -9.428888084631 175.904469073208 -8.476491364522 165.780677564269 -10.069507152474 -12.947824642318
5.328112000000 -7.278856609982 -5.886782236060 -9.004726481994 172.246136696596 -9.293219466325 161.334728730154 -9.959441968813 -13.085977663615
5.340110000000 -7.308912050268 -7.583638341862 -8.929462936546 166.853436114780 -10.210602286016 161.040434730252 -10.022409561541 -13.265463050788
5.352108000000 -7.192362069069 -8.486647592232 -9.252861477100 162.140262302972 -10.807232684986 164.084821954886 -10.113989063900 -14.158094240541
5.364106000000 -7.041398286494 -8.903350979867 -9.837576617416 159.248977694609 -10.842803397986 168.773961916206 -10.008064657021 -15.770444310461
5.376104000000 -6.887926918443 -10.021648129192 -10.382719032829 159.238100380558 -10.192888838812 171.496796455966 -9.915385755596 -17.610026809711
5.388102000000 -6.907773134916 -10.769720645273 -10.701602007397 161.145161312010 -9.274473526162 169.939415332113 -9.769742693662 -19.194588428609
5.400100000000 -6.893101385964 -11.283385023539 -10.588061202112 163.617153110649 -8.657420427463 164.402626186633 -9.620994911682 -19.275756616324
5.412098000000 -6.719996634142 -11.958214563836 -10.127400942690 164.411518165665 -8.647419052952 156.894102274051 -9.389744155752 -19.526925104960
5.424096000000 -6.552149531249 -12.896940083223 -9.636463519648 161.989004961507 -9.279794294193 151.131792010613 -9.224138414499 -20.096853540393
5.436094000000 -6.488330011718 -13.464241587258 -9.402853593160 157.338009846753 -10.243840336875 148.566983120040 -9.209625502363 -20.457603240502
5.448092000000 -6.531880909064 -13.705421773992 -9.551960093531 151.733482173570 -11.093838800070 150.350463431416 -9.331619053377 -21.206334880997
5.460090000000 -6.592494198130 -14.425318672963 -10.064754934590 147.552229275930 -11.404666080477 155.049687734336 -9.323672830652 -22.676293852299
5.472088000000 -6.501928068921 -15.707159261844 -10.670368090182 146.286376726276 -11.005332774901 159.234104521610 -9.229213252370 -24.438123441799
5.484086000000 -6.485556915037 -17.396545212585 -11.140900127235 147.773861230538 -10.046778945075 159.405107220192 -9.135208717829 -26.653481593792
5.496084000000 -6.341958929952 -18.296379144743 -11.236047670579 150.760070452059 -9.199776713091 154.657769583152 -9.009781179120 -27.718220691107
5.508082000000 -6.195662167905 -18.648645345702 -10.924699788091 152.540992128565 -8.948830553829 146.907799781007 -8.785971477457 -28.149699597211
5.520080000000 -5.981800847090 -19.009692830039 -10.419190484652 151.520357872776 -9.385523773729 139.314269626861 -8.518556012609 -28.744260809835
5.532078000000 -5.949916125151 -19.204566771731 -10.007798756425 147.549524879893 -10.312815556817 135.173133225423 -8.427326049558 -29.132799253045
5.544076000000 -6.034771142004 -19.706828140602 -9.962478943463 141.800380081627 -11.320270822535 135.221695948127 -8.542187890985 -29.168969099593
5.556074000000 -6.058808683969 -20.270404703245 -10.335110406019 136.745476235696 -12.009428217892 139.426161270516 -8.677151895522 -30.158728717097
5.568072000000 -6.092973661491 -21.517797446724 -10.948460044534 134.045125609877 -12.015668332342 145.140641687662 -8.666597771660 -31.891517817596
5.580070000000 -6.005224321240 -23.314001853493 -11.551270814611 134.505769077102 -11.260912595606 148.193183058528 -8.577823601828 -33.995909330412
5.592068000000 -5.952060026863 -24.549721286375 -11.841011421389 137.133434554695 -10.241656062154 145.789247045571 -8.441820059643 -35.755658721230
5.604066000000 -5.833391276300 -25.110616422539 -11.663582530396 139.918476856721 -9.620195971619 138.634146542869 -8.260508310602 -36.908461629031
5.616064000000 -5.614790141519 -25.819902058973 -11.132773994518 140.525678324506 -9.747481781321 130.338659488747 -7.964887891327 -37.095912812763
5.628062000000 -5.498099538392 -26.159869755662 -10.585843292422 137.973057994204 -10.462589105323 124.142832179469 -7.802846861313 -36.866197123172
5.640060000000 -5.549902986676 -26.352573172326 -10.357611512373 132.739982539536 -11.521776449894 122.166420042362 -7.854617850205 -36.553199297865
5.652058000000 -5.609647896451 -26.770140044544 -10.622504941140 127.030255072359 -12.446138770200 124.858847125945 -8.091282755060 -37.135317659495
5.664056000000 -5.599676055869 -27.163078875503 -11.240512847177 123.283405265468 -12.765890612496 130.310172650764 -8.132204354412 -38.658540817878
5.676054000000 -5.598992059652 -28.357932962825 -11.920955029555 122.276951533701 -12.350308025322 135.389525644630 -8.159015497377 -40.779409095377
5.688052000000 -5.545589208112 -29.756836116817 -12.387477733540 124.250626466851 -11.363273594791 136.479865623074 -8.051812489038 -43.014179802211
5.700050000000 -5.486939677832 -30.542796011734 -12.441293776602 127.723447391679 -10.473974054090 131.496070006582 -7.901109788966 -44.348856034288
5.712048000000 -5.402877927013 -31.495173334453 -12.011795626219 129.909421703976 -10.204845325160 122.573622103257 -7.579240639505 -44.927859496856
5.724046000000 -5.268583359189 -32.160119654930 -11.373034005252 128.986179299088 -10.751335585266 115.182855741370 -7.385211750111 -45.000107354765
5.736044000000 -5.258904692468 -32.792498649467 -10.914872539201 124.387800560058 -11.730676013889 111.022816255433 -7.387761025808 -44.530708819831
5.748042000000 -5.311227856322 -33.010417636875 -10.943413494608 118.139547759275 -12.703261614023 111.432082985282 -7.553790230479 -44.636179341135
5.760040000000 -5.316564403989 -33.782519905934 -11.423472718093 113.054340593108 -13.375163244980 115.664035145278 -7.731557664595 -45.757342795231
5.772038000000 -5.250815451773 -33.953515737660 -12.093547627647 109.829410169695 -13.281563455048 122.275768907936 -7.795529203760 -47.711282501319
5.784036000000 -5.126185911029 -35.412580951757 -12.771558058853 111.146408899805 -12.433159621060 125.712201673945 -7.807033979718 -50.446910592520
5.796034000000 -5.129455128388 -35.951856290755 -13.081252314835 114.499791475375 -11.373386446472 123.249093849917 -7.602540163149 -52.134738858517
5.808032000000 -5.053656666963 -36.632833313376 -12.922070572705 118.147704587119 -10.806903680639 116.042497762356 -7.367993266016 -53.009214625472
5.820030000000 -4.925389845293 -37.028642931128 -12.346164239430 118.972680675141 -11.008499066177 107.640705478716 -7.093322084229 -53.000816381898
5.832028000000 -4.914887851477 -37.445838114964 -11.744703034420 115.770060611635 -11.801611426598 101.406227014437 -6.960585062276 -52.688622473847
5.844026000000 -4.961904848258 -37.940857760255 -11.462520202868 110.197954401510 -12.905051634501 99.777578495187 -7.059581225696 -52.211011421312
5.856024000000 -5.015845056559 -38.385465474999 -11.763257517982 104.455911933620 -13.802898464908 101.892046141125 -7.257388338513 -52.340837115981
5.868022000000 -4.964931703315 -38.996551284509 -12.416462893460 100.631856326094 -14.142901802531 107.322688525770 -7.436198356554 -53.706397637912
5.880020000000 -4.842015685888 -39.985030943518 -13.111264341724 99.760984753321 -13.708131752260 112.411372317362 -7.513170214598 -56.097373656050
5.892018000000 -4.838236347978 -40.466699576419 -13.573588693284 102.155056878290 -12.698473990626 113.338366356988 -7.449698637847 -58.465418164870
5.904016000000 -4.780410736603 -41.242198712966 -13.700162301342 105.751793844559 -11.885501398851 108.573110747234 -7.266238449334 -59.897165355321
5.916014000000 -4.704415689055 -41.711441416843 -13.318324230497 107.884459600804 -11.754926789988 100.675680244884 -7.017570999721 -60.378890093126
5.928012000000 -4.687419454223 -42.053104989155 -12.645163526461 106.364024893663 -12.326127501047 94.242759938910 -6.829884147669 -59.945571811499
5.940010000000 -4.724678424649 -42.353069203944 -12.222652298622 101.830857047807 -13.300733911485 90.658282544449 -6.850349763164 -59.308171815543
5.952008000000 -4.744587384665 -43.094915705331 -12.272460411576 95.654196173738 -14.207781326285 92.071944897065 -7.070825538716 -58.976444873022
5.964006000000 -4.792906832240 -43.487052850811 -12.780249258696 91.210831069700 -14.682351721972 96.004967552437 -7.287066128117 -60.193532799531
5.976004000000 -4.708936394934 -44.591749061441 -13.472580763667 89.227256843237 -14.468699133541 101.615660484113 -7.472646731615 -62.059966938959
5.988002000000 -4.615254090445 -45.756476908882 -14.107898156550 89.925919512132 -13.601752142837 103.686476566937 -7.517572550953 -64.801372481319
6.000000000000 -4.544425111443 -46.051124695634 -14.451993459858 93.186871588200 -12.702090732213 99.861621771937 -7.431490636718 -66.611090356236
