# GHZ S DB R 50.000000000000
0.001000000000 -0.192166758132 161.371396742111 -15.912607703706 -104.777673308231 -15.718525795444 -107.340683670598 -0.173698517469 168.020627283804
0.012998000000 -11.186801763948 86.196037052894 -5.846771146814 -167.126639931374 -5.837866808490 -166.997254254347 -8.283973372544 117.376447084220
0.024996000000 -13.978851987457 62.517490123464 -5.486669266212 -174.851214517881 -5.466247044873 -174.553994590664 -11.909992016917 102.792613457545
0.036994000000 -14.689919583297 47.784115361326 -5.234164344001 -177.402559306366 -5.219636796572 -177.204214921182 -13.850323373490 92.175826984639
0.048992000000 -14.888963723982 37.317850688108 -5.101572640582 -179.625712435973 -5.089296001442 -179.468204743192 -15.189518376297 82.641512786183
0.060990000000 -14.942302843285 29.329743570801 -5.011637105579 178.549565479931 -5.005249463084 178.667725213081 -16.199224494305 74.206637406749
0.072988000000 -14.957990308632 22.758421276573 -4.951729314451 176.729730749230 -4.941695256583 176.833026506134 -16.982648979366 66.398105224314
0.084986000000 -14.978746355784 17.453255301621 -4.909954455049 174.983037966074 -4.902586228491 175.075914240293 -17.604122698539 59.699686737616
0.096984000000 -14.995657433981 13.106561752281 -4.888496630801 173.378490937466 -4.875502418886 173.473130300733 -18.085422624944 54.022012123581
0.108982000000 -14.989157214880 9.631922363539 -4.871201025204 171.950560358056 -4.857891793231 172.015677208994 -18.458289229064 49.200286328514
0.120980000000 -14.954177971940 6.732172198893 -4.853056679590 170.650688546829 -4.836931044327 170.691407175919 -18.723324242986 44.882848530197
0.132978000000 -14.888878911023 4.068138925373 -4.830759692979 169.334918843731 -4.819505079023 169.346046145152 -18.950219835724 41.000696738889
0.144976000000 -14.823648608034 1.626896379021 -4.816814384909 168.122111311085 -4.810619925298 168.111846423542 -19.160744154574 37.191090025643
0.156974000000 -14.770068211416 -1.021331851410 -4.812841655241 166.843643556561 -4.808578404877 166.848318449081 -19.349750961000 33.299927099666
0.168972000000 -14.747883365560 -3.726011364142 -4.805954000211 165.479150431693 -4.802935142563 165.529938349864 -19.543170400441 29.501677218312
0.180970000000 -14.761319882275 -6.183699793682 -4.808553555750 164.135818258617 -4.795683112038 164.193496663297 -19.734631240972 26.289931150742
0.192968000000 -14.786130513232 -8.345817399085 -4.807333178639 162.834457671427 -4.785938755065 162.899923654863 -19.911943117154 23.676414868770
0.204966000000 -14.810250111867 -10.128568238506 -4.811305675987 161.646565845079 -4.788057828635 161.668273173229 -20.059216574317 21.809599230593
0.216964000000 -14.813662431934 -11.642764918264 -4.804595705871 160.502113764111 -4.784330059746 160.478449532546 -20.132921472960 20.014680365496
0.228962000000 -14.780884891488 -13.088380274723 -4.798967247307 159.272070283726 -4.782684773127 159.272121779982 -20.182028681042 18.077633896347
0.240960000000 -14.724956040794 -14.640933977775 -4.794243888348 157.983324583475 -4.787530491134 157.995190762691 -20.205883982679 15.906359903190
0.252958000000 -14.664557615344 -16.377461180851 -4.798849085028 156.783111525210 -4.797723483288 156.845509897794 -20.259405458311 13.497099735477
0.264956000000 -14.642594571959 -18.215699598580 -4.802650890106 155.639055202267 -4.798087676808 155.731382073153 -20.333003130748 11.227042065108
0.276954000000 -14.658345193669 -20.010515563443 -4.804413675523 154.424246002605 -4.792674852606 154.624346880306 -20.417084090203 9.263150265047
0.288952000000 -14.685911163041 -21.623512746937 -4.807058371704 153.290605693228 -4.785161096300 153.439416444132 -20.492620133252 7.900596018638
0.300950000000 -14.708731202448 -23.056545494306 -4.808001403534 152.183439744248 -4.774964023737 152.290613162290 -20.526837944852 7.112476112950
0.312948000000 -14.708407200739 -24.133073674021 -4.798693541144 151.170994984087 -4.770665212686 151.265005607464 -20.511260739893 6.434314535203
0.324946000000 -14.675009179655 -25.388412760546 -4.793505643219 149.949247320077 -4.771747687140 149.922664200515 -20.477925200283 5.657478173895
0.336944000000 -14.604122428252 -26.637788716688 -4.790343332863 148.697344538144 -4.785383535140 148.681161777073 -20.454753757398 4.606950428174
0.348942000000 -14.523896906803 -28.089987067768 -4.799810099747 147.487124497413 -4.805138919119 147.527189432609 -20.437496314806 3.263552325207
0.360940000000 -14.474829844759 -29.684303706742 -4.804736378051 146.374227458083 -4.811939950149 146.472658233076 -20.497613358216 1.693539704977
0.372938000000 -14.458850481016 -31.259566793184 -4.812087338894 145.269318396932 -4.802972660304 145.432960054996 -20.574660995880 0.284304982930
0.384936000000 -14.477625998853 -32.795280353529 -4.811426846588 144.180250992934 -4.784666357535 144.343516634402 -20.629748102633 -0.681672862717
0.396934000000 -14.497979834241 -34.079704362951 -4.808229012194 143.126065945187 -4.772577104131 143.212548855921 -20.653485863934 -1.168726798199
0.408932000000 -14.495085246121 -35.151401097095 -4.799149825937 142.045144835344 -4.763384393530 142.076109322816 -20.616311749648 -1.478473637984
0.420930000000 -14.458613970522 -36.144594268464 -4.787660409221 140.900559142468 -4.764825110523 140.839179551847 -20.563270460612 -1.875484559849
0.432928000000 -14.389946807221 -37.170433460634 -4.781973784357 139.700067480844 -4.780091818706 139.622608979199 -20.492527158504 -2.533008751196
0.444926000000 -14.302746095650 -38.390316219679 -4.787512298824 138.466722522292 -4.806098757079 138.447131117337 -20.460261429360 -3.570263445840
0.456924000000 -14.232601782601 -39.799811967071 -4.802967012425 137.351061259830 -4.821586116601 137.488137303023 -20.485168390423 -4.941113913756
0.468922000000 -14.206270187956 -41.275538170003 -4.811720727185 136.291032182200 -4.812041293565 136.514804551893 -20.580602014476 -6.269165587028
0.480920000000 -14.205885439544 -42.745740559910 -4.815421898714 135.245931263769 -4.788560867752 135.502123874068 -20.668059939001 -7.394649321764
0.492918000000 -14.203470415808 -44.053286813009 -4.803474022408 134.130290514674 -4.760314358384 134.387369725689 -20.701348157978 -8.143232990544
0.504916000000 -14.207557100606 -45.248684778468 -4.796545853084 133.086466721058 -4.735812648965 133.119986530826 -20.672466337388 -8.539943578630
0.516914000000 -14.184023973086 -46.265027476479 -4.779660717361 131.957537311596 -4.729750149241 131.859845889490 -20.611469849365 -9.054935666230
0.528912000000 -14.131075377924 -47.301618882345 -4.769332183913 130.761482755817 -4.745468036854 130.589826298828 -20.509306845712 -9.709987042492
0.540910000000 -14.041070411933 -48.427173912711 -4.767879927439 129.562646414158 -4.779663935303 129.411899279466 -20.419552948645 -10.755814507350
0.552908000000 -13.954224138653 -49.793783629017 -4.781330723560 128.374005307368 -4.810394564075 128.384264545249 -20.354998223307 -11.998366076086
0.564906000000 -13.905270434491 -51.239130842948 -4.793703909110 127.292321590571 -4.814697069072 127.515562361923 -20.346849066254 -13.276689106806
0.576904000000 -13.881189965539 -52.578602118986 -4.797954132808 126.315577825623 -4.783379744260 126.555840283264 -20.381084503658 -14.370343183996
0.588902000000 -13.882904033938 -53.881904176292 -4.795409415016 125.274122756352 -4.750175845648 125.450312999231 -20.373192883387 -15.181113326783
0.600900000000 -13.884787690199 -55.111904098009 -4.773797659113 124.184492187245 -4.720642865984 124.257109134668 -20.321716131757 -15.696268711774
0.612898000000 -13.880021113218 -56.144122886803 -4.761336915606 123.051728781091 -4.704019691572 122.947616589113 -20.244370833952 -15.918562326552
0.624896000000 -13.839772188427 -57.081535495601 -4.745345183266 121.876053751891 -4.718479618287 121.654121504686 -20.136640735712 -16.326237425498
0.636894000000 -13.754083939023 -58.163260084445 -4.737748080017 120.670865863177 -4.752214654390 120.428918565581 -20.033586223893 -16.994694810611
0.648892000000 -13.662655893533 -59.401670588297 -4.748653576506 119.446076522232 -4.788795059372 119.393473709358 -19.966323062196 -17.896784913721
0.660890000000 -13.586582164098 -60.884546603367 -4.769603684524 118.300556334198 -4.805507601603 118.485505809450 -19.962659142562 -18.983714098704
0.672888000000 -13.538188985847 -62.260208115780 -4.779659267184 117.278190693803 -4.790552612034 117.579058506760 -19.975404504137 -19.838173174847
0.684886000000 -13.514509834551 -63.515612784506 -4.780965558570 116.364231655306 -4.753532262804 116.550525144794 -20.006506611774 -20.417810953225
0.696884000000 -13.499932831123 -64.666373570022 -4.764277869947 115.291814677279 -4.717277421823 115.328385628004 -20.007833490581 -20.935047526651
0.708882000000 -13.487881044807 -65.809395142117 -4.745144574186 114.218521923604 -4.696658618959 113.938565379180 -19.952814668694 -21.443908429178
0.720880000000 -13.463648821817 -66.646536562958 -4.724653666735 113.072749605280 -4.715195274858 112.611315721544 -19.864913468136 -21.915256132355
0.732878000000 -13.406960480386 -67.476123238430 -4.708349859997 111.833495011481 -4.762827193803 111.384932998942 -19.792348586860 -22.628954668298
0.744876000000 -13.331828155779 -68.573966852755 -4.719321379449 110.594069915917 -4.813095798043 110.414183261047 -19.742092810041 -23.601954481219
0.756874000000 -13.262654748801 -69.976228539706 -4.739734199895 109.419940726224 -4.838791736969 109.606671124519 -19.768731188843 -24.910803837856
0.768872000000 -13.223718421805 -71.359225701747 -4.759662135713 108.356655188465 -4.823999447329 108.917948698915 -19.849135645980 -26.258480601034
0.780870000000 -13.207410379670 -72.600909623593 -4.769122271480 107.465617585229 -4.776652027438 108.016006660494 -19.920355527152 -27.266042730147
0.792868000000 -13.188243350192 -73.775389186002 -4.760556732344 106.477599419937 -4.711361672027 106.893295027796 -19.943658768593 -28.166986349585
0.804866000000 -13.162851534742 -75.086442277756 -4.731205188769 105.392684783097 -4.656810151596 105.437702005662 -19.882057727739 -29.073469518480
0.816864000000 -13.149726400993 -76.036061479965 -4.707986061916 104.202162892965 -4.648077941032 103.954517685259 -19.774324086923 -29.722253190385
0.828862000000 -13.111143120815 -76.795948773068 -4.696462324936 103.048937010759 -4.695722687826 102.539082152269 -19.659746366835 -30.182322005464
0.840860000000 -13.040941576644 -77.699359485329 -4.694922271943 101.741654158017 -4.765195985172 101.378618491854 -19.513760156607 -31.002830795804
0.852858000000 -12.960799362491 -78.872477298673 -4.706263343946 100.546458204400 -4.811865208240 100.551879124292 -19.477075738387 -32.044728382365
0.864856000000 -12.905328897027 -80.208306360435 -4.727718036199 99.370149579144 -4.821667267766 99.867783795810 -19.473504172478 -33.249228611988
0.876854000000 -12.885663333833 -81.413350463803 -4.748119616302 98.487654856686 -4.786157967098 99.135934797043 -19.518881415471 -34.381663014852
0.888852000000 -12.878076707610 -82.663795562466 -4.751979512802 97.579570991017 -4.717385869336 98.177970238059 -19.544990757743 -35.261126306413
0.900850000000 -12.845142974246 -83.858251581407 -4.723318679359 96.535377536985 -4.649095753082 96.804806504646 -19.518394750491 -36.261385640382
0.912848000000 -12.834770826480 -85.110072337319 -4.696617848883 95.353551639840 -4.616957208528 95.142319188250 -19.444614847099 -36.937719053670
0.924846000000 -12.813309379069 -85.897320725153 -4.674954630192 94.159113636488 -4.641103589705 93.584354890501 -19.314910575311 -37.339955537922
0.936844000000 -12.744341536624 -86.661007527123 -4.661958952585 92.910701402793 -4.720364041856 92.314505518561 -19.193574458487 -37.810881077159
0.948842000000 -12.661400657824 -87.663995800482 -4.662555444807 91.559182929485 -4.798381927661 91.354081260022 -19.102632742396 -38.313909461453
0.960840000000 -12.588684887772 -88.803007490936 -4.687872736570 90.347572574564 -4.833245696824 90.645521900631 -19.088338953636 -39.451219838430
0.972838000000 -12.564615519701 -90.040336387740 -4.715270285141 89.286181541306 -4.818026997533 90.051720269820 -19.162380546022 -40.491678750301
0.984836000000 -12.550994999378 -91.140774922179 -4.729565410343 88.470327263369 -4.754286612824 89.299975604879 -19.227925927677 -41.414020335326
0.996834000000 -12.529710397851 -92.185249678624 -4.723521858812 87.617018310763 -4.663829911600 88.148302163970 -19.268109438381 -42.204513391365
1.008832000000 -12.519830294741 -93.403354737102 -4.695259664505 86.615845778199 -4.597980234874 86.629107100270 -19.275950224629 -42.941257532382
1.020830000000 -12.520129996483 -94.325439058297 -4.664623289660 85.419459070390 -4.591721041520 84.839788029274 -19.198896979100 -43.719974964742
1.032828000000 -12.480361975973 -95.063453170172 -4.638829284035 84.183027018389 -4.652021142714 83.288678759545 -19.132552652237 -44.412892692438
1.044826000000 -12.401361624713 -95.900428220337 -4.628668417051 82.835748492042 -4.759989187274 82.139995590718 -19.008669114133 -45.220531545266
1.056824000000 -12.309237996347 -96.931182510733 -4.647453780285 81.503545335526 -4.834515208681 81.369554433132 -18.918682608584 -46.462751671759
1.068822000000 -12.264143127051 -98.152999136213 -4.685468840515 80.278143529063 -4.862674720618 80.871832995548 -18.902493489250 -47.771980276013
1.080820000000 -12.249992273122 -99.328300115448 -4.708649875178 79.350198165227 -4.816583254908 80.360586738201 -18.942264483589 -49.017950661582
1.092818000000 -12.232383748854 -100.311114092507 -4.714559779813 78.621324133763 -4.713187817542 79.604311080752 -18.996912787164 -49.554269608380
1.104816000000 -12.232110403994 -101.342570823338 -4.699620317503 77.769617735175 -4.615113167510 78.206442908533 -18.975295743468 -50.330157125844
1.116814000000 -12.222528756249 -102.447419062213 -4.662878676970 76.657031451591 -4.566953082710 76.401485522933 -18.927866262747 -51.255694428535
1.128812000000 -12.201482501294 -103.218052973785 -4.634922274430 75.388837188718 -4.602309853167 74.575776689820 -18.844563809359 -51.729486330777
1.140810000000 -12.153758776044 -103.999187904251 -4.608188039361 73.992461265449 -4.705140061604 73.133367512135 -18.664597141495 -52.466991173576
1.152808000000 -12.051422124777 -104.886834963861 -4.620294332400 72.569709078776 -4.818843216064 72.253027535902 -18.517306137021 -53.239767254039
1.164806000000 -11.981765530932 -105.995038495127 -4.644376712622 71.217534831821 -4.879076907296 71.756755084339 -18.451481852474 -54.187453693066
1.176804000000 -11.956515348072 -107.111594971135 -4.688783942161 70.248974471326 -4.855742639288 71.377917945717 -18.509539580189 -55.338521788718
1.188802000000 -11.954105266934 -108.190231138116 -4.714896260979 69.497237340241 -4.749447439824 70.831442133763 -18.599016269349 -55.869176552986
1.200800000000 -11.937889973226 -109.235749194988 -4.720056378276 68.793322053906 -4.633632614444 69.724533807196 -18.660817087964 -56.485712264324
1.212798000000 -11.925691004562 -110.360797161507 -4.682121058262 67.922495709343 -4.535620359814 68.033522351851 -18.641542842803 -57.058731235515
1.224796000000 -11.898532963697 -111.325988004371 -4.635095326266 66.744923350567 -4.519095307765 65.981771377412 -18.571574614449 -57.505547192977
1.236794000000 -11.883295236834 -111.842163153578 -4.592045873043 65.303144123257 -4.607019032520 64.097091685351 -18.443617694377 -57.995430603331
1.248792000000 -11.799465395996 -112.362474779426 -4.580248483286 63.788106284628 -4.754419312477 62.850097642949 -18.267888774829 -58.450570359496
1.260790000000 -11.702752508320 -113.257176529309 -4.594138137513 62.311410621334 -4.881593310217 62.144850673480 -18.186536142938 -59.469207044104
1.272788000000 -11.637039902587 -114.460171827432 -4.630035325758 61.134852175566 -4.926560208006 61.983303422792 -18.234517152716 -60.654492481345
1.284786000000 -11.650634701632 -115.622558139960 -4.680456313345 60.186852501994 -4.848969791924 61.761469483967 -18.317054293287 -61.543787760688
1.296784000000 -11.678248856352 -116.551731960853 -4.711240989375 59.523482228269 -4.728022704743 61.084058825144 -18.426148944565 -62.147028215196
1.308782000000 -11.643494809180 -117.449880580592 -4.688224028126 58.923164870590 -4.585636378985 59.710168573417 -18.415907428803 -62.626162975346
1.320780000000 -11.599789635632 -118.596476127635 -4.658545296029 57.910895879204 -4.505638150744 57.680342565218 -18.405998846239 -63.290444546224
1.332778000000 -11.595799170489 -119.419237921719 -4.600849024861 56.551868905581 -4.553208443913 55.458741457589 -18.353221932704 -64.200845992701
1.344776000000 -11.518656112694 -119.907771798957 -4.584279309248 55.072638518397 -4.703108232496 53.743945461442 -18.212721321017 -64.966947714776
1.356774000000 -11.406699686072 -120.714592639497 -4.591409470342 53.634773796149 -4.882627084133 52.911357151897 -18.107740029877 -66.028873129091
1.368772000000 -11.330488899914 -121.756436081147 -4.619089821435 52.230087277087 -4.988302897636 52.756331342797 -18.059805204795 -67.134318950097
1.380770000000 -11.341304268594 -122.590790101914 -4.673555923045 51.164962549055 -4.969359197531 52.763860483186 -18.074975185460 -68.386420018292
1.392768000000 -11.402719431956 -123.463861141216 -4.716329928800 50.499921835129 -4.843878199647 52.507613522331 -18.157247817419 -69.096556006173
1.404766000000 -11.379842077283 -124.348361567944 -4.702361173659 49.990132126897 -4.679318647177 51.520031584348 -18.156900282850 -69.535649460098
1.416764000000 -11.341790080523 -125.481097888837 -4.654147209493 49.181813526987 -4.553527143679 49.772539864238 -18.119354786209 -70.213853185152
1.428762000000 -11.334717040060 -126.494775026919 -4.599108279448 47.937595589229 -4.544046063276 47.485810803301 -18.072822781349 -71.050632108491
1.440760000000 -11.286935835922 -127.112796502304 -4.544958992627 46.366069919674 -4.646788721462 45.490363618896 -17.962911753972 -71.637835919408
1.452758000000 -11.174792242411 -127.612975873117 -4.517316645859 44.759899662075 -4.828383815024 44.247616903245 -17.812802606657 -72.235934073317
1.464756000000 -11.066406342167 -128.614115423061 -4.555651593401 43.197978096966 -4.956742790895 44.035302459047 -17.722542773925 -73.130818823072
1.476754000000 -11.059295437783 -129.274043461389 -4.632141863070 42.032217415936 -4.975147876994 44.207197841533 -17.741929139255 -74.317108403598
1.488752000000 -11.156078101585 -130.169323505584 -4.709018312882 41.197400164660 -4.851159219047 44.022743870339 -17.854189490302 -74.879680136951
1.500750000000 -11.196631466151 -130.781261836613 -4.751955117339 40.935852396276 -4.674888596960 43.497405696062 -17.901962994418 -74.618116551380
1.512748000000 -11.088804831345 -132.334812236080 -4.718517626660 40.185214568876 -4.501635110635 41.574194249654 -17.909628306713 -75.592684115119
1.524746000000 -11.057927400974 -133.621240714674 -4.651652533642 39.298462103472 -4.440231660106 39.202815836927 -17.867189341796 -76.314954880846
1.536744000000 -11.030872107354 -134.430062595619 -4.563277113253 37.979914372495 -4.531622874706 36.765848407590 -17.813808066749 -77.147853577533
1.548742000000 -10.964400755324 -134.670274546063 -4.513165482174 36.274373161124 -4.737985564590 34.995273242207 -17.654418941112 -77.649106661458
1.560740000000 -10.822415901182 -135.473318229972 -4.523916932692 34.539664580272 -4.943690047936 34.693765627572 -17.504054581186 -78.438375535405
1.572738000000 -10.785003196292 -136.458644163383 -4.596761909004 33.069417543063 -5.022221383000 35.043846206688 -17.534757355191 -79.706337583212
1.584736000000 -10.847610330106 -137.130638182328 -4.665368871655 32.057753097130 -4.936972970988 35.263028063389 -17.645697848192 -80.664755493562
1.596734000000 -10.887748462661 -137.909009287845 -4.738217794316 31.426047005217 -4.738930011748 34.733733148094 -17.770194047946 -81.107197972613
1.608732000000 -10.837048407113 -138.852817513271 -4.757487947604 31.137015449150 -4.515274018642 33.448237020417 -17.766433276254 -81.397964036332
1.620730000000 -10.756362464974 -140.140255757659 -4.705241842130 30.563645436560 -4.390281122103 31.232402521323 -17.681662012757 -82.086707826859
1.632728000000 -10.743071807418 -141.232591623020 -4.600302244921 29.479639848193 -4.413473489464 28.518997765086 -17.620644558343 -82.919543690451
1.644726000000 -10.704556870356 -141.614607380178 -4.532999942652 27.908691843043 -4.610984325688 26.245041428207 -17.524035343139 -83.600185874827
1.656724000000 -10.594606483661 -142.003300226625 -4.512397476640 26.106674511959 -4.872549123026 25.424226047703 -17.364616783984 -84.204352347281
1.668722000000 -10.506211190998 -142.858431986797 -4.554923902877 24.408053472927 -5.035633034939 25.828511045383 -17.319128934598 -85.482472618457
1.680720000000 -10.572961176578 -143.609663778895 -4.636100938864 23.109106436208 -5.004642148143 26.348797768267 -17.406981576826 -86.554005207834
1.692718000000 -10.634845532135 -144.238207560400 -4.721463208044 22.333944708608 -4.820715151041 26.169926312187 -17.536526773031 -87.053376458544
1.704716000000 -10.615059458925 -145.086394034712 -4.759489147219 21.919004071540 -4.560811819697 25.118741429167 -17.564034542054 -87.285716377744
1.716714000000 -10.531942041617 -146.368673397900 -4.728471296791 21.604393953146 -4.360525446649 23.160806242595 -17.449640808311 -87.738249102656
1.728712000000 -10.494524164897 -147.731310421042 -4.648339445756 20.854678284459 -4.317320821835 20.415833653800 -17.392687573837 -88.616471723215
1.740710000000 -10.477273639857 -148.409399096268 -4.557558536798 19.432713844391 -4.481946004509 17.736924874308 -17.340542970725 -89.253680668895
1.752708000000 -10.397172061247 -148.720046389172 -4.506198059685 17.564377919599 -4.776530679872 16.205469884969 -17.214526842776 -89.908163010977
1.764706000000 -10.278132046811 -149.404999068820 -4.531404996466 15.726464728203 -5.022016956760 16.383295517972 -17.098551622554 -91.028951888457
1.776704000000 -10.260959971254 -150.297634013430 -4.603157126598 14.233211691374 -5.073051012596 17.206460100292 -17.169792799591 -92.059705075793
1.788702000000 -10.366144206051 -150.694605984065 -4.711582929573 13.290189048116 -4.923750700388 17.512011349179 -17.333210761320 -92.527604077588
1.800700000000 -10.361794811460 -151.401964259273 -4.792105789857 12.712701652720 -4.649549991046 16.766474290095 -17.443078084698 -92.682457625538
1.812698000000 -10.285190135835 -152.312597597775 -4.777256072965 12.434199610589 -4.392720365758 15.221033682756 -17.344943159116 -93.127303499685
1.824696000000 -10.229475194336 -153.729598456527 -4.706302697505 12.063524447579 -4.277761701671 12.647052830847 -17.268033814806 -94.132643936705
1.836694000000 -10.235782978681 -154.862551577445 -4.606866392704 11.008746897564 -4.384509581094 9.805102675598 -17.244953948060 -95.146881892525
1.848692000000 -10.196810425393 -155.335928439721 -4.518088225030 9.357360799915 -4.662297835542 7.840274175232 -17.140787111100 -95.792560592508
1.860690000000 -10.066703444982 -155.915128409350 -4.508872349035 7.453969818971 -4.952170033568 7.515055515779 -17.019855493469 -96.865414599733
1.872688000000 -10.045769286055 -156.620763109054 -4.587696357135 5.711464879305 -5.063735639713 8.380793016903 -17.008222887072 -98.015804094479
1.884686000000 -10.111592151705 -156.966683737681 -4.685570984245 4.532980773405 -4.949196275083 8.986899936172 -17.152956440069 -98.494526885113
1.896684000000 -10.130467101390 -157.459421606899 -4.759288596316 3.815416166452 -4.688434442706 8.650321497924 -17.272846068694 -98.697397173019
1.908682000000 -10.053640113623 -158.299824659045 -4.781438606822 3.570166917314 -4.382250991984 7.269764003764 -17.202694108684 -98.996100478138
1.920680000000 -9.969672477405 -159.682799629290 -4.723417802074 3.321762533718 -4.187322971960 4.690561872536 -17.126993477823 -99.939267283822
1.932678000000 -9.996955985927 -160.886544101650 -4.599585940550 2.442550332699 -4.218838799175 1.548311677842 -17.067900586338 -101.338879279322
1.944676000000 -10.007199578572 -161.510091347166 -4.503179621763 0.886295220521 -4.488406309039 -1.148009495226 -16.978058005381 -101.783604012975
1.956674000000 -9.898830358418 -162.005500019939 -4.479864303637 -1.132544537053 -4.832610626547 -2.177733662921 -16.858503287868 -102.557612261400
1.968672000000 -9.804672598990 -162.917772585621 -4.553322618509 -3.056225759046 -5.051691827222 -1.394033258420 -16.783135260673 -103.751349459834
1.980670000000 -9.878048795494 -163.533374172006 -4.665576022802 -4.489336911468 -5.027886457118 -0.313010865963 -16.926365072370 -104.314885971132
1.992668000000 -9.927100967388 -163.767938270788 -4.764450766045 -5.293279730016 -4.806208032707 -0.144252242721 -17.073626464422 -104.498957198013
2.004666000000 -9.878215944526 -164.417190610508 -4.821073448990 -5.515449724787 -4.484216604041 -1.105573055472 -17.039597836978 -104.407423980313
2.016664000000 -9.761428181121 -165.657885233841 -4.782126350281 -5.598169008198 -4.213021317049 -3.330095041352 -16.949689630624 -105.100604527546
2.028662000000 -9.759919064908 -167.036111766088 -4.659340076436 -6.050782095186 -4.144502391855 -6.373063712202 -16.877237290912 -106.528733201460
2.040660000000 -9.810806176254 -167.919812825898 -4.537861714034 -7.302821897269 -4.349248979188 -9.244907753633 -16.859272457753 -107.226680849319
2.052658000000 -9.749632942319 -168.385542753805 -4.479195638175 -9.227918390396 -4.691928979064 -11.037711675910 -16.803690878763 -107.965927645621
2.064656000000 -9.631726871985 -169.062234179955 -4.506303750129 -11.494897644670 -4.974039421233 -10.706277686503 -16.684553578607 -109.129619726651
2.076654000000 -9.637137711798 -169.822703629775 -4.601273390306 -13.150432165420 -5.017861274384 -9.461326473006 -16.743892531427 -109.699917458612
2.088652000000 -9.703262049345 -170.316960054266 -4.736034076637 -14.178076772912 -4.838598152607 -8.966249747313 -16.911647741769 -109.849987065427
2.100650000000 -9.667065037426 -170.643508131558 -4.826565282472 -14.577502400415 -4.530328925428 -9.658283608446 -16.954446795513 -109.477060308873
2.112648000000 -9.551086292316 -171.680892658436 -4.834396077555 -14.639246316452 -4.234618951255 -11.705131351266 -16.888142717437 -110.067067166366
2.124646000000 -9.525729579919 -172.987400733263 -4.737180732826 -14.841790968556 -4.107436944512 -14.612198121814 -16.815714629876 -111.373455755134
2.136644000000 -9.589100660169 -174.055931810232 -4.618337525941 -15.785970785707 -4.247041649834 -17.604500040873 -16.812341490625 -112.483336064527
2.148642000000 -9.601850989984 -174.562112372263 -4.532271306004 -17.536358341927 -4.579235653370 -19.645640920992 -16.762935079174 -113.692132054365
2.160640000000 -9.541290335205 -175.208896660876 -4.521070244644 -19.717312758950 -4.896743405301 -19.612837904904 -16.682391539443 -114.643524835095
2.172638000000 -9.522501454605 -176.026578313812 -4.590017722591 -21.538497909877 -4.988063311821 -18.477400982262 -16.689327788977 -115.502404139557
2.184636000000 -9.566435840063 -176.425707979926 -4.709191827855 -22.686113430125 -4.834846949274 -17.602250338038 -16.812304603696 -115.565195536317
2.196634000000 -9.547533256020 -176.994142373820 -4.825276331370 -23.410503722140 -4.522113602438 -17.940420100604 -16.903508207225 -115.228102860151
2.208632000000 -9.418171525908 -178.029552740141 -4.839513597452 -23.505539686978 -4.184248831270 -19.845851589907 -16.848462503490 -115.918390488712
2.220630000000 -9.351407613755 -179.382433893139 -4.763574326510 -23.421840268955 -3.998733190039 -22.793101406239 -16.729046898536 -117.390189547462
2.232628000000 -9.421374225674 179.420293575338 -4.650631801440 -24.116128936041 -4.073875708194 -26.118433499933 -16.703468790197 -118.900292308015
2.244626000000 -9.464794049142 178.910812906933 -4.540883973133 -25.775048574248 -4.392449994236 -28.587357957354 -16.676797303954 -119.820792411387
2.256624000000 -9.394843772067 178.433075202544 -4.487704642991 -27.895634207454 -4.756618816450 -29.099968942200 -16.538485446822 -120.364868825192
2.268622000000 -9.364480577743 177.639572671679 -4.553828691870 -29.868887402417 -4.929331463507 -28.083644871752 -16.544527262739 -120.985993486956
2.280620000000 -9.393033737666 177.046695798138 -4.692725441600 -31.291083659914 -4.835656013127 -26.963833993046 -16.650954767228 -121.031955991142
2.292618000000 -9.374592887079 176.645522790454 -4.816423055940 -32.114136895600 -4.551167426643 -26.933158885360 -16.718424457493 -120.412002028404
2.304616000000 -9.256829030289 175.795700206692 -4.843606102762 -32.193878178815 -4.197051008801 -28.406894342491 -16.677786467963 -120.603351289544
2.316614000000 -9.195481157026 174.443177079213 -4.795407873337 -32.074354657803 -3.973671152512 -31.273484282433 -16.628996817948 -122.014797580501
2.328612000000 -9.266890248255 173.209505977891 -4.694688050836 -32.670243710917 -4.012769586825 -34.797170502870 -16.683324718776 -123.839764879898
2.340610000000 -9.323514172551 172.694197230906 -4.542192918298 -34.168079084853 -4.302496835608 -37.476852719204 -16.697490086961 -124.828670248483
2.352608000000 -9.273670256088 172.390082629876 -4.461443298606 -36.043252538156 -4.700299960883 -38.276475105623 -16.591982782807 -125.447685740482
2.364606000000 -9.227970616739 171.755398575089 -4.527760274593 -38.073177125003 -4.954390136957 -37.231809809995 -16.551084152794 -126.338432179308
2.376604000000 -9.255034338211 170.894926229268 -4.647546543915 -39.843641945342 -4.903499544796 -35.762779070501 -16.621594846702 -126.829284953797
2.388602000000 -9.254126501122 170.543140621872 -4.762632152934 -40.725416712152 -4.608708858936 -35.182015498425 -16.654514207961 -126.535960169408
2.400600000000 -9.152356446510 169.809119123695 -4.810848187554 -40.762949941286 -4.222254417705 -36.296627761614 -16.601243343838 -126.413355531786
2.412598000000 -9.092904108088 168.235198015478 -4.792974534428 -40.788264548224 -3.930202462198 -39.095447024443 -16.554921027624 -127.548315960971
2.424596000000 -9.144719119324 166.780378259129 -4.668098178833 -41.223774138477 -3.866948149408 -42.793632884266 -16.595209231025 -129.229284473786
2.436594000000 -9.223542672104 166.327695837236 -4.524891137742 -42.379879728596 -4.100376703335 -45.950243900881 -16.671411138471 -130.246235275240
2.448592000000 -9.198317037568 166.201304793871 -4.421858325142 -44.179914285900 -4.507142661872 -47.422884493686 -16.598705185914 -130.862116091534
2.460590000000 -9.123305986465 165.699861283800 -4.460973959725 -46.501092985624 -4.852304659912 -46.758198684279 -16.486462538050 -131.733378562139
2.472588000000 -9.153171150273 164.833338212714 -4.583543396765 -48.446697197940 -4.884016138147 -45.292287656765 -16.456999341338 -132.379517609203
2.484586000000 -9.172260968751 164.367995076662 -4.730401695152 -49.434040890203 -4.638879497010 -44.350274340532 -16.476132287745 -131.989510564036
2.496584000000 -9.088546046771 163.756625360127 -4.837150862646 -49.602985471342 -4.253883457597 -45.080658950093 -16.431916967251 -131.538719359070
2.508582000000 -9.028279230789 162.254311621947 -4.829920410224 -49.470549590129 -3.925996661723 -47.681952345319 -16.368766432149 -132.547365105401
2.520580000000 -9.090950641412 160.622885416000 -4.706662830427 -49.691871284973 -3.838503890428 -51.359271284995 -16.496570671762 -133.983604579659
2.532578000000 -9.197207630858 160.029716068393 -4.542784358478 -50.547775411578 -4.015659245041 -54.833440215511 -16.629482270689 -134.989206232957
2.544576000000 -9.182141726958 160.117220778615 -4.433461953911 -52.299627852711 -4.438793173890 -56.635808925901 -16.585669111197 -135.366823576290
2.556574000000 -9.087481519431 159.666897455809 -4.390592183428 -54.762087986226 -4.835196661414 -56.225369049623 -16.424295077273 -136.102412479994
2.568572000000 -9.068098392590 158.811326791396 -4.493192972955 -56.826556665045 -4.947528976223 -54.614021576888 -16.348745916345 -137.031714645406
2.580570000000 -9.116296008919 158.105595583305 -4.664595689650 -57.992443048947 -4.738918187838 -53.281743735235 -16.401296279095 -136.648012448357
2.592568000000 -9.048482869917 157.453228344050 -4.798765253104 -58.474320057423 -4.340835004503 -53.352824189179 -16.397324304034 -136.139561799790
2.604566000000 -8.952902800576 156.077701376109 -4.806503151214 -58.331644469383 -3.951916636047 -55.608296147554 -16.391349246311 -136.667408176114
2.616564000000 -8.996308051388 154.415395656035 -4.701935480994 -58.391502144751 -3.779512365992 -59.275620221890 -16.535064673455 -138.067083661649
2.628562000000 -9.124100016729 153.650864754727 -4.527626234460 -59.460609463000 -3.904499787518 -63.159019320438 -16.706365240800 -139.812432308469
2.640560000000 -9.121448325083 153.834224174297 -4.396747759702 -60.606098289351 -4.310691165056 -65.356489067509 -16.715283000276 -139.329610043229
2.652558000000 -9.036731587463 153.663633868665 -4.337968116574 -63.090430396661 -4.745085856855 -65.504359673784 -16.533418553526 -140.192438119490
2.664556000000 -9.018370432063 152.656919953723 -4.415784475103 -65.322768259846 -4.919818581642 -63.720686444295 -16.476729650537 -141.358968511837
2.676554000000 -9.064728619475 151.793341445089 -4.624995634917 -66.914846049077 -4.752788461409 -62.007860180653 -16.536228061227 -141.583486205789
2.688552000000 -9.039249875749 151.260821681167 -4.791090371067 -67.446498464469 -4.345398814951 -61.836357365174 -16.527084350861 -141.273906314423
2.700550000000 -8.913518013326 149.810162324205 -4.837945322693 -67.243353285358 -3.896314639617 -63.745739272185 -16.440181192284 -141.939457897717
2.712548000000 -8.941023032616 147.846976853831 -4.736344315036 -66.972522465961 -3.638746753218 -67.423167760461 -16.536213483764 -143.577414217133
2.724546000000 -9.094878203374 146.856613929409 -4.573776231188 -67.446556179566 -3.711029511591 -71.551836236011 -16.763306419702 -144.831143582836
2.736544000000 -9.162563104634 147.150849026619 -4.384802334165 -68.861517920167 -4.096904104854 -74.724779221672 -16.824404845835 -144.683681748164
2.748542000000 -9.051628119959 147.135840840411 -4.272719876520 -71.120058627632 -4.585431989490 -75.522667044259 -16.611561390336 -145.241391815779
2.760540000000 -8.974632248939 146.222979783468 -4.326437619735 -73.693978124962 -4.885779579776 -74.052510196057 -16.452030088303 -146.690348788050
2.772538000000 -9.042126154864 145.289498607001 -4.536128436203 -75.646564366839 -4.831383816290 -72.047675720596 -16.428732347458 -147.438944883405
2.784536000000 -9.045315368575 144.692551646656 -4.754368124556 -76.497819492015 -4.477222482003 -71.288824535580 -16.393279678207 -147.085846631118
2.796534000000 -8.944006829496 143.552189006248 -4.864239784109 -76.247136297757 -4.032575659758 -72.570898129941 -16.255105259834 -147.075681241011
2.808532000000 -8.946444344972 141.655124402410 -4.806841105605 -75.774817604171 -3.723726309155 -75.878822377238 -16.269131700096 -147.990772196487
2.820530000000 -9.109273713578 140.484049023009 -4.629633940079 -75.868835319035 -3.706523397444 -79.958723637134 -16.502538075340 -148.667468636420
2.832528000000 -9.207264698084 140.673333049255 -4.407289914727 -76.867023251047 -4.029802369894 -83.442643012743 -16.658863846804 -148.049006609690
2.844526000000 -9.116869922835 140.829389556958 -4.228427394504 -79.013458280573 -4.509798521005 -84.825209525647 -16.533661821415 -147.831264867146
2.856524000000 -8.974350042935 139.872282462559 -4.198579150327 -81.810653669317 -4.876556233857 -83.811538281425 -16.347576995027 -149.007820494612
2.868522000000 -9.021692845993 138.535182988628 -4.379618432351 -84.394696359545 -4.898947040854 -81.646725843349 -16.377951466930 -150.111741111120
2.880520000000 -9.085886755886 137.851242817677 -4.641507306822 -85.705208317616 -4.573613431745 -80.480969096930 -16.448773253736 -149.968753334936
2.892518000000 -8.979276237374 136.971362399988 -4.843554991043 -85.721412562265 -4.099192936294 -81.245254390856 -16.383179561369 -149.593719060883
2.904516000000 -8.923728770380 135.147334972842 -4.878607551872 -85.124425478228 -3.724169327038 -84.337117875322 -16.420956253657 -150.133439435590
2.916514000000 -9.050826695917 133.664680037222 -4.728287759944 -84.840229233892 -3.634092885442 -88.641329468258 -16.701950485565 -150.680771466632
2.928512000000 -9.201376934773 133.950257319573 -4.498740036684 -85.350140116104 -3.905283458580 -92.598685931607 -17.007037890274 -150.206503156522
2.940510000000 -9.145935791171 134.399936044541 -4.269777654966 -87.009707253775 -4.389522761259 -94.688611171059 -16.856794450762 -150.309600581285
2.952508000000 -8.988144445837 133.625783640380 -4.177936928642 -89.802323161607 -4.878558602219 -94.114270179804 -16.709836727693 -151.612983952734
2.964506000000 -9.018460576435 132.156603659116 -4.309219060487 -92.682486611175 -5.031468245713 -91.771266065195 -16.742866169678 -153.575790659274
2.976504000000 -9.112022864802 131.208015874704 -4.549240114095 -94.380686618917 -4.794895255578 -89.933258393906 -16.838750048309 -154.187258457872
2.988502000000 -9.085709144834 130.553383637749 -4.805767825486 -94.750226085955 -4.320516968213 -89.950652172206 -16.756641421819 -154.109757289593
3.000500000000 -8.990118411697 128.850965643505 -4.903816249068 -94.196212635414 -3.851250128512 -92.506379145814 -16.713545903383 -154.853060374266
3.012498000000 -9.084540165597 126.946546429551 -4.797923144821 -93.745516680687 -3.656847351263 -96.551165069267 -16.875001334371 -156.103336804124
3.024496000000 -9.284065199354 126.909162402418 -4.579728564040 -93.772883315117 -3.838855495549 -100.758692158879 -17.137847400584 -156.147409753880
3.036494000000 -9.289986660507 127.607102532398 -4.317846242720 -94.995951615992 -4.280268124126 -103.486714258080 -17.104080163433 -155.528738802114
3.048492000000 -9.119075636116 127.122313368594 -4.137634421106 -97.509477459659 -4.761057546443 -103.620324465371 -16.813998760881 -156.544192526880
3.060490000000 -9.047102441808 125.520716138281 -4.142852068148 -100.553939057840 -5.022002622170 -101.656055451601 -16.703355635493 -158.854556745721
3.072488000000 -9.157088633137 124.226962647852 -4.371476270700 -103.015344514171 -4.873531231774 -99.582897323894 -16.788870771020 -159.713509820631
3.084486000000 -9.190206355598 123.499753996804 -4.668859357477 -104.161277741273 -4.463213506195 -99.052504535176 -16.733294634945 -159.503118951490
3.096484000000 -9.110444193763 122.070622393529 -4.836701060838 -103.925225860277 -3.987092345926 -101.099718936106 -16.578313122723 -159.721960279594
3.108482000000 -9.152267823618 120.229389295220 -4.831907014934 -103.263392578069 -3.709767906370 -104.936335305989 -16.678440364816 -160.552623272731
3.120480000000 -9.322391290231 119.765667818268 -4.634269922200 -102.941412833394 -3.804694388909 -109.260239393267 -16.875600831990 -160.371383764139
3.132478000000 -9.355097610814 120.566567648155 -4.375098282367 -103.663931704216 -4.195954627815 -112.448454491271 -16.841621073621 -158.871726880145
3.144476000000 -9.168363896984 120.455015789937 -4.127722831607 -105.749234615623 -4.732757239915 -113.291692770299 -16.615226317722 -158.552743024422
3.156474000000 -9.042523270572 119.051385005165 -4.077006113532 -108.760746213374 -5.085272059651 -111.840118210227 -16.490184990344 -160.214022470794
3.168472000000 -9.153074145583 117.543252730293 -4.237706059978 -111.606736245292 -5.071666777187 -109.682807541566 -16.673321497175 -161.167617105211
3.180470000000 -9.280368382881 116.683265542284 -4.549582507741 -113.354258477748 -4.716114761459 -108.531111792862 -16.813429368774 -160.915657782883
3.192468000000 -9.250617282157 115.565397912401 -4.809517531727 -113.631090764295 -4.247429373881 -109.526089152945 -16.770652184244 -160.902645836541
3.204466000000 -9.220795585144 113.591721813089 -4.884729505000 -112.912162220264 -3.890094807558 -112.820603526671 -16.811756008330 -161.615796970935
3.216464000000 -9.354732116247 112.573149658686 -4.758185501913 -112.293662521675 -3.870966013299 -117.142415721243 -17.100166172468 -162.006838434300
3.228462000000 -9.430579760082 113.125192365101 -4.508396771322 -112.479495452932 -4.174007784874 -120.692663990731 -17.215845059725 -160.768598782047
3.240460000000 -9.278964189021 113.359613100506 -4.232226429351 -113.915919501370 -4.641170930164 -122.248374642024 -17.073891898557 -160.086330685499
3.252458000000 -9.090853994186 112.113050977593 -4.075419962333 -116.657687826931 -5.043812591552 -121.331582717970 -16.923722473030 -161.656249724566
3.264456000000 -9.146518586924 110.574862852801 -4.140151546396 -119.661505585110 -5.135066970277 -119.271064410454 -17.131128828004 -163.462170624864
3.276454000000 -9.323839288513 109.545880617360 -4.394920629480 -122.012779534261 -4.859524702469 -117.911986792955 -17.376853366472 -163.905514382816
3.288452000000 -9.363070666230 108.539367804609 -4.685548291416 -122.839523028057 -4.417368429340 -118.487788574585 -17.388832058042 -164.031592092497
3.300450000000 -9.339250482989 106.751997322208 -4.866612987549 -122.438553004687 -4.033037423110 -121.300109834411 -17.343836623661 -165.546920614880
3.312448000000 -9.415338226699 105.260077343437 -4.817964903838 -121.842597847782 -3.938206729534 -125.488833355736 -17.553332816239 -166.354595248379
3.324446000000 -9.492200363099 105.306038498252 -4.617954155329 -121.799315495789 -4.176095804869 -129.148305249968 -17.712201592927 -166.061917252583
3.336444000000 -9.367955431499 105.474146366831 -4.344619831763 -122.680934036798 -4.628781183151 -131.167741471893 -17.571963499429 -165.879552001873
3.348442000000 -9.160029357185 104.627049894977 -4.148585546307 -124.988159226592 -5.051231178383 -130.856445918664 -17.346093811035 -167.219519529583
3.360440000000 -9.156160695675 103.101751521731 -4.136601905538 -127.892291990913 -5.210511257970 -128.931440513737 -17.369893978623 -169.373728071540
3.372438000000 -9.351358564454 101.946924886352 -4.324839996697 -130.548210596254 -5.018457810581 -127.282875617681 -17.565646888687 -170.050498143385
3.384436000000 -9.454946669936 101.162932429865 -4.621992485385 -131.856322630630 -4.627713259981 -127.361652705824 -17.603666007289 -169.707208372767
3.396434000000 -9.429900846400 99.581108713751 -4.854269356282 -131.969514243126 -4.243905934772 -129.579133193760 -17.512258612152 -170.638691381061
3.408432000000 -9.451113452183 97.835101286697 -4.887192845286 -131.432843537519 -4.073239189476 -133.315674522529 -17.565991837378 -171.304153232595
3.420430000000 -9.539072713754 97.364541814711 -4.744076889756 -130.975527084727 -4.232963974577 -137.184740497356 -17.735679036373 -170.850374235708
3.432428000000 -9.463049390690 97.481194598742 -4.502924172059 -131.563525804904 -4.621704536602 -139.651974721491 -17.685497595906 -170.163038939482
3.444426000000 -9.250119980583 96.943511199734 -4.268289260501 -133.255501893844 -5.065912992774 -140.024583662633 -17.477605633423 -170.546929907175
3.456424000000 -9.180557929559 95.511580698381 -4.176316024222 -136.088650640729 -5.287434860844 -138.644128300136 -17.448657521461 -172.205444159656
3.468422000000 -9.355883810433 94.293603293906 -4.285199365664 -138.685724083039 -5.205612425768 -136.940024702260 -17.655946573940 -172.735804513338
3.480420000000 -9.520686567095 93.386486006395 -4.550217614635 -140.592266641736 -4.886826737097 -136.602160702956 -17.841960244026 -172.228636090401
3.492418000000 -9.546917642421 92.282988377238 -4.804761130181 -141.296018435777 -4.526175466497 -138.071323632815 -17.917598669532 -172.233128414871
3.504416000000 -9.547879332854 90.333093133367 -4.923108416810 -141.022136598169 -4.310500359742 -141.335301417413 -17.981481803075 -173.340489819242
3.516414000000 -9.592292520461 89.050572710979 -4.866514189868 -140.617822640770 -4.380266954525 -144.898602402270 -18.148694807380 -173.804102707673
3.528412000000 -9.523940066522 88.748355024724 -4.678025748259 -140.773671885374 -4.696260820557 -147.475586679369 -18.207503154755 -173.663208847649
3.540410000000 -9.340209561831 88.227059572978 -4.447218050748 -142.032967376478 -5.108452872956 -148.268057752251 -18.154672693149 -174.199182545897
3.552408000000 -9.210836290236 86.812409958785 -4.324211255235 -144.231422464593 -5.340987727014 -147.243393884372 -18.157908070179 -175.337103927627
3.564406000000 -9.327217787392 85.731979946138 -4.355064714729 -146.823234972913 -5.284696763605 -145.823442895077 -18.410057116431 -176.374664296403
3.576404000000 -9.494230739996 85.046169656984 -4.532511465137 -148.904014827423 -5.026776095572 -145.508259591328 -18.613710658566 -176.455416204649
3.588402000000 -9.574025562432 84.019379736056 -4.794470755661 -149.956151406754 -4.691918585180 -146.839054711045 -18.677426278027 -176.543965632235
3.600400000000 -9.574416049288 82.346473793925 -4.943306008511 -150.212742701561 -4.464722123055 -149.655019709143 -18.759539484683 -178.167037301835
3.612398000000 -9.620212312214 81.011001082919 -4.944824027873 -149.963494806390 -4.519127422171 -153.108023188020 -18.850105448113 -179.252137384842
3.624396000000 -9.577643377429 80.417524916590 -4.796425499679 -149.977077316435 -4.808027293659 -155.836983227061 -18.924970259573 -179.370773101158
3.636394000000 -9.414507501794 79.724333688383 -4.592864189934 -151.043293167286 -5.192528310764 -156.767252230441 -18.806215609155 -179.928431209790
3.648392000000 -9.288301788913 78.509328310463 -4.477475653694 -152.727100328862 -5.462774803316 -156.092909092681 -18.756265785530 178.673452360341
3.660390000000 -9.347221446025 77.185276948582 -4.441352459758 -155.205438074967 -5.470736811991 -154.723670528907 -18.923838301944 177.470606650699
3.672388000000 -9.507721344647 76.254713828687 -4.566132316821 -157.429212455801 -5.253337969117 -154.086129806148 -19.108929368013 177.181308390794
3.684386000000 -9.618719585433 75.604837665901 -4.775195391230 -158.801280120934 -4.920853312434 -154.897367687809 -19.220327085229 177.733850949798
3.696384000000 -9.630863870990 73.845637484544 -4.940650230215 -159.304791431607 -4.670618107947 -157.335271834682 -19.310464677943 176.661592964662
3.708382000000 -9.649501008993 72.199740625041 -4.999339786999 -159.210335932871 -4.675899991575 -160.339302474427 -19.386100784003 175.607671787994
3.720380000000 -9.616573432476 71.277803596194 -4.931745683520 -159.224128830124 -4.863937974592 -163.164722855805 -19.466302094379 175.414786360411
3.732378000000 -9.473770034352 70.231695712110 -4.756005845549 -160.074344821893 -5.176807108788 -164.452531581062 -19.479901462922 175.345589583067
3.744376000000 -9.327237062118 69.127687267769 -4.613249092190 -161.553059065953 -5.419186846540 -164.267658657757 -19.467209526685 174.640672553379
3.756374000000 -9.331383653451 68.045798006296 -4.564062125225 -163.704275354002 -5.434082612936 -163.529127810374 -19.625687083828 174.163231306729
3.768372000000 -9.428428146199 67.162969599885 -4.633515013747 -165.832127906848 -5.259452285954 -163.327114338966 -19.841430381566 174.205045527190
3.780370000000 -9.504620140446 66.616517864950 -4.794677285430 -167.395295066683 -4.996377936853 -164.215814887395 -20.051022788201 174.678159755811
3.792368000000 -9.559252663589 65.374273541875 -4.979492077867 -168.163599486218 -4.805967580151 -166.526442108169 -20.245272315131 173.832892478662
3.804366000000 -9.617725988060 63.798091939331 -5.072653097577 -168.360921330230 -4.818357802473 -169.509584204868 -20.469146763981 171.807907390472
3.816364000000 -9.623025448551 62.445559219477 -5.023110962648 -168.635427238145 -5.053313948452 -172.078573524129 -20.613963715775 170.385523047545
3.828362000000 -9.523911909268 61.192900338709 -4.913390301026 -169.027564995965 -5.386821157154 -173.137719917311 -20.667373798349 169.302778308377
3.840360000000 -9.393320865691 59.743791582502 -4.802114660254 -170.266663355126 -5.615873475168 -172.885653839164 -20.705485621626 168.198375347615
3.852358000000 -9.355173909842 58.348032821069 -4.733782500702 -172.117413887101 -5.650000710057 -171.800830217712 -20.844950398865 167.490121310150
3.864356000000 -9.416004028691 57.430460407809 -4.750569894925 -174.082552711413 -5.459572366238 -171.400519135167 -21.050509919083 167.668285045040
3.876354000000 -9.467506112129 56.967736392550 -4.875297622515 -175.526480716911 -5.176708026580 -172.253042366945 -21.321034559579 168.411208364207
3.888352000000 -9.478550200189 56.089573304686 -5.027051607819 -176.635814516776 -4.965002514752 -174.488110689184 -21.568621600791 167.930753380063
3.900350000000 -9.506607156701 54.565798944908 -5.132773230993 -177.181462840840 -4.968642091500 -177.443840198716 -21.829675661342 165.754523033585
3.912348000000 -9.522443006747 53.294030849090 -5.149682422570 -177.489310303313 -5.172422574808 179.955145041750 -22.077063861371 163.278190461503
3.924346000000 -9.465667074391 52.049038452370 -5.071202308662 -178.144659385853 -5.490740115363 178.695329653544 -22.188644357352 161.336763797016
3.936344000000 -9.361941355700 50.429556481759 -4.958087694216 -179.033708602051 -5.735482555517 178.820851674362 -22.088941320767 160.338576308654
3.948342000000 -9.332347253528 48.895782616320 -4.902524585693 179.422613908899 -5.793373145425 179.824815242936 -22.214596038355 158.993823647175
3.960340000000 -9.371117101786 47.948070274359 -4.918444824747 177.770773557292 -5.628091251619 -179.671981461316 -22.358592734389 159.322105421120
3.972338000000 -9.395425705544 47.409647282654 -4.993167644677 176.024537511799 -5.352477148372 179.603618195902 -22.570668176678 160.226839366541
3.984336000000 -9.416323939102 46.687586386887 -5.123985931577 174.893318209936 -5.136544599609 177.562141361631 -22.857181636393 160.301916800602
3.996334000000 -9.417367698733 45.293993713711 -5.218940742735 174.192994009630 -5.114754037062 174.814622624813 -23.202749696064 158.655566781830
4.008332000000 -9.446669828124 43.927947658523 -5.228924796714 173.771370282573 -5.304070446071 172.308298667291 -23.526567084769 155.828867837394
4.020330000000 -9.411025428372 42.469988095839 -5.182929576064 173.131883029811 -5.621669000859 171.146268135360 -23.677680611376 153.535964984061
4.032328000000 -9.328721616127 40.784004169373 -5.116579373751 172.249306640126 -5.845125141814 171.312420268086 -23.744803206301 152.030154645577
4.044326000000 -9.305039465680 39.087944587945 -5.069648081370 170.806410722404 -5.870793299024 172.407760825602 -23.828990073943 150.916067972013
4.056324000000 -9.331940543973 38.091902192720 -5.068609552915 169.167157586611 -5.669014528253 172.879099529068 -23.984265192187 151.409775576082
4.068322000000 -9.335173920292 37.742117995780 -5.140483412254 167.526435343323 -5.364611862273 171.976435597809 -24.249919960508 153.263837330296
4.080320000000 -9.238534137977 37.228144070539 -5.247158270022 166.465087737816 -5.129838602849 169.631694890338 -24.608414667712 154.405458656237
4.092318000000 -9.240154226847 35.771978897939 -5.336632246440 165.538831267184 -5.108791285421 166.450061386325 -25.229404456757 153.386496720340
4.104316000000 -9.276270304988 34.435645108347 -5.385085942219 165.074692096169 -5.337477800932 163.452489247856 -26.062648840538 150.350553904900
4.116314000000 -9.253131724352 33.197508238782 -5.384040905558 164.507458406497 -5.693774229708 162.188805429416 -26.783168491692 146.105465014095
4.128312000000 -9.194279377431 31.593565666910 -5.314522612456 163.547506982910 -6.010584976647 162.431746120363 -27.054790440257 140.927414837513
4.140310000000 -9.152516373768 30.012014231763 -5.273130670491 162.364832092089 -6.108474029683 163.829613113162 -27.007266159319 136.693801611709
4.152308000000 -9.193660405171 29.036705664824 -5.256663458196 160.605281142282 -5.939613337439 164.954146251784 -27.017465552325 134.795762216554
4.164306000000 -9.208751573772 28.654371840877 -5.297098290581 159.433572276503 -5.652490006090 164.652975012561 -27.208316488116 135.957260105631
4.176304000000 -9.198581191708 28.367049049664 -5.367245988794 158.160789935629 -5.356553986380 162.612488870232 -27.357366070118 137.042358275681
4.188302000000 -9.187527316825 27.013558944624 -5.461947814110 157.437543176043 -5.245529224054 159.556293134607 -27.996927561340 136.057924447519
4.200300000000 -9.199444242662 25.314257065484 -5.518773509573 156.809544493205 -5.409533226940 156.531681650231 -28.940656670539 131.087647248840
4.212298000000 -9.159137700544 23.777052164980 -5.538305431706 156.277439614833 -5.734383967492 154.982897805556 -29.694722061896 124.865037018400
4.224296000000 -9.062471697078 22.314374243643 -5.515027372721 155.407492520927 -6.048022922003 155.111500848975 -29.942754874220 117.158288781048
4.236294000000 -8.978065495466 20.928474941838 -5.483282347755 154.324008312673 -6.174463014327 156.293803847426 -29.648275680063 113.240470323675
4.248292000000 -8.995198337302 19.660428255919 -5.468055190293 152.943319803582 -6.031548487856 157.229752352907 -29.586121791453 111.052715266790
4.260290000000 -8.980942064326 19.074247510383 -5.477771521107 151.408438154074 -5.725266403872 156.832538635817 -29.526111559339 110.343914306546
4.272288000000 -8.903833988268 18.588732817958 -5.532638454768 149.984344425564 -5.435425474582 154.583927501131 -29.608411516666 114.057059849703
4.284286000000 -8.853755904422 17.444454391365 -5.618342447282 148.951959701857 -5.316725292524 151.186308829244 -30.221585931310 116.355856895906
4.296284000000 -8.896042401686 16.070799239643 -5.680411675221 148.052739608109 -5.507779612419 147.928971575062 -31.613790811649 112.392793737961
4.308282000000 -8.948019931299 14.681078929763 -5.706124692649 147.192877044064 -5.922616811896 146.114844077596 -33.468628575983 103.678273111247
4.320280000000 -8.919375731262 13.207914511025 -5.693312307342 146.224736755033 -6.261119921332 146.543745730894 -34.383792609874 84.880400467769
4.332278000000 -8.845123167018 11.318729778567 -5.682988803044 145.286945457586 -6.399951426550 148.308164389396 -33.633586913174 71.525276643694
4.344276000000 -8.834365245962 10.274318643885 -5.695913090506 142.673552630836 -6.234333278057 150.263184443672 -32.953667659439 64.926081503699
4.356274000000 -8.811835781459 9.446072118461 -5.681819698322 143.095853292742 -5.858601559109 149.833453405708 -32.116343656837 65.773433319952
4.368272000000 -8.713633152101 9.449890804750 -5.714330543394 141.896155307237 -5.463371927868 148.034881455592 -32.464796598941 68.203699662282
4.380270000000 -8.617700095237 8.439493488539 -5.783330387243 140.777903914598 -5.247679589071 144.434143410267 -33.024275015210 66.611645335123
4.392268000000 -8.630954810316 7.137749408668 -5.784025525015 139.763356299249 -5.374409728233 140.572765896862 -33.827886986077 57.057888431966
4.404266000000 -8.725813798278 5.774017626972 -5.804641519786 138.960753848152 -5.810562503433 138.104652354473 -33.507813172091 40.250921793389
4.416264000000 -8.703276750187 4.618562871104 -5.845797438485 138.082068802124 -6.267920458566 137.995193819350 -32.206338005810 26.824837832837
4.428262000000 -8.653156375841 3.164751615747 -5.882895693419 137.199418197844 -6.519061707711 139.757474161768 -30.731957282472 20.690446225124
4.440260000000 -8.601407049737 1.238709621864 -5.889011997200 136.179325149898 -6.413230816368 141.811155404975 -29.509257951722 21.144300172622
4.452258000000 -8.623586721113 0.323130303082 -5.907436653538 135.208450445620 -5.995464410483 142.515075778956 -29.044033032307 24.438582241233
4.464256000000 -8.518883775002 0.317834641839 -5.918875261627 134.232803794876 -5.539356288234 140.928335296693 -28.952254521894 27.263912109790
4.476254000000 -8.387258373534 -0.071908251499 -5.935149655946 133.171928830983 -5.262607937517 137.374246056209 -29.084706532608 28.282634581810
4.488252000000 -8.335535466502 -1.386528103973 -5.933382883602 132.225412686799 -5.337863376375 133.071748346914 -29.280990518654 22.745522937719
4.500250000000 -8.406162593964 -2.862151090458 -5.978039534837 131.297771629657 -5.771436083355 129.805628270770 -29.108315498054 16.950662750748
4.512248000000 -8.439295047068 -3.788392414864 -6.011846175655 130.071250125033 -6.309874742082 129.410415226441 -28.692851972679 9.235029144108
4.524246000000 -8.371607482593 -5.369825373418 -6.054604342979 128.873573868081 -6.671572854453 131.398163454271 -27.980521111827 3.536500938198
4.536244000000 -8.319139695413 -7.146379812232 -6.076441768098 127.992718136949 -6.623070449332 134.073725768429 -27.292849215325 1.102725217131
4.548242000000 -8.352096063078 -8.077699210556 -6.112383734295 127.518485457584 -6.190263795769 135.619419815410 -27.108398821234 2.265886542022
4.560240000000 -8.321390669228 -8.145620234403 -6.136844401041 126.590413068503 -5.600922406080 134.689756490543 -26.861132742065 2.541183766872
4.572238000000 -8.123317903252 -8.136649213851 -6.116505485216 125.664752542740 -5.148327055924 131.220363180078 -26.581259472425 1.208292989141
4.584236000000 -7.987109928839 -9.300614081871 -6.072633126310 124.659412431791 -5.052156668947 126.022011367832 -26.261642243199 -3.172004110270
4.596234000000 -8.074629808888 -11.281588062947 -6.098077625333 123.707814149780 -5.436218837571 121.310750471314 -25.950808580588 -8.139736597691
4.608232000000 -8.169970660544 -12.215811343791 -6.122931269522 122.048560984646 -6.056035209820 119.368796405562 -25.625062136381 -12.058458293886
4.620230000000 -8.107565043697 -13.008267807259 -6.151685783135 120.816692487414 -6.626405145880 120.710993661561 -24.980023326223 -15.497700311648
4.632228000000 -8.054061451438 -14.718826975911 -6.247168696258 120.024704063058 -6.796126377462 123.835115894167 -24.324658560188 -17.983377780276
4.644226000000 -8.075182286781 -16.143757511984 -6.367173843491 119.382527869358 -6.456657186874 126.488151615229 -23.821729166417 -18.324216738123
4.656224000000 -8.036242579665 -16.466704391215 -6.349015400734 118.645825517606 -5.861827748746 126.797323670866 -23.447543436745 -15.650068947441
4.668222000000 -7.861983552455 -16.054111480673 -6.288678242540 118.229948306005 -5.338473990520 123.977891496789 -23.213496080817 -14.509192362632
4.680220000000 -7.713960629992 -16.819729209927 -6.260588517579 117.697363565054 -5.094984304723 118.935977259029 -23.053533917318 -15.300397652172
4.692218000000 -7.792143668635 -18.926177088461 -6.211652729588 116.347619830768 -5.344397486194 113.426652529000 -22.941169697742 -18.205789197321
4.704216000000 -7.933928333453 -20.187847467864 -6.172559204631 114.704943959535 -5.962484513133 110.183058078527 -22.684680708031 -21.401233995762
4.716214000000 -7.988916673856 -20.952363857366 -6.254710772404 113.160320089908 -6.607847297764 110.357755834063 -22.128161377914 -23.324199819397
4.728212000000 -7.868792277449 -22.103443303343 -6.372399583054 111.933363969524 -6.988103336570 113.217541093213 -21.617260980603 -25.200561107356
4.740210000000 -7.776091331699 -23.858075747649 -6.482964685619 111.078922321236 -6.900475025143 116.790634549365 -21.313863463784 -25.170324562959
4.752208000000 -7.720202634675 -24.876880773563 -6.521683577469 110.952877760780 -6.385000505866 118.485474836278 -21.224679058401 -23.571551425900
4.764206000000 -7.623240906336 -24.505071512025 -6.516314626799 110.787452288638 -5.673852870656 117.398206956214 -21.192698596176 -22.811844366230
4.776204000000 -7.429041848356 -24.399667396008 -6.442872336417 110.387066754226 -5.176847140742 113.032978717637 -21.115568600599 -23.342387539522
4.788202000000 -7.407961789309 -25.862391096719 -6.366981324389 109.224930174110 -5.177651833612 107.047217312352 -21.098783852913 -25.217977930867
4.800200000000 -7.571961095098 -27.635301488851 -6.281249322006 107.348205743199 -5.721569421589 101.954306314735 -21.135055825624 -27.363912872076
4.812198000000 -7.673109761367 -27.835003789762 -6.306128754193 105.648209334943 -6.534981946855 100.586797041544 -20.982873355908 -29.129894453225
4.824196000000 -7.664438882551 -28.319877823793 -6.455626648013 103.936631098450 -7.222676310532 102.837480827895 -20.739827911912 -31.794763421563
4.836194000000 -7.552762524182 -30.164229730224 -6.605637438305 102.796136523186 -7.389038287281 107.269337905399 -20.443368389254 -33.088508497545
4.848192000000 -7.582364608473 -31.655456286773 -6.704240977830 102.668506900253 -6.908810069697 110.705842080207 -20.316870710178 -33.953257269076
4.860190000000 -7.573056134479 -32.100708451195 -6.762689905312 102.796643939715 -6.097454303816 111.016535183590 -20.273077758446 -33.802416117086
4.872188000000 -7.374005325072 -31.905012320667 -6.689701790717 102.801096620362 -5.363927071134 107.580321044362 -19.963681219626 -34.179310562062
4.884186000000 -7.185837250949 -32.807643650656 -6.576922472196 102.001362741324 -5.087830901810 101.374090010497 -19.699190315552 -36.303688538076
4.896184000000 -7.271823459049 -34.746123661861 -6.427807731835 100.842295683808 -5.486393772992 95.325058481819 -19.567737427290 -38.690127559755
4.908182000000 -7.399341295499 -35.473086770733 -6.394370907011 98.939201659456 -6.278192167966 92.203644523302 -19.439006569966 -40.530935912350
4.920180000000 -7.397009717793 -35.546699470517 -6.496215461457 96.668712739069 -7.078046246150 92.983805663065 -19.242673815616 -41.622774788445
4.932178000000 -7.316532782892 -36.687240548229 -6.673844292465 95.103165557082 -7.497983749775 96.933720358607 -18.944239944980 -43.248068496916
4.944176000000 -7.275772210014 -38.055480168185 -6.900163720376 94.547370098318 -7.249042172399 101.313825287406 -18.680879221225 -44.717652348373
4.956174000000 -7.314935268211 -38.781047970546 -6.961622954510 94.936385315300 -6.534343133554 103.214224789902 -18.499664758232 -44.294411045487
4.968172000000 -7.215069555446 -38.503812295124 -6.920976120778 95.364494300757 -5.673790539547 101.183015340280 -18.144797079594 -43.009491613091
4.980170000000 -6.996998784180 -38.890620204609 -6.751874836186 95.199197194872 -5.199078832449 95.396604862919 -17.792917329137 -43.157441415475
4.992168000000 -7.020185833875 -41.075473513066 -6.565809656057 94.047868621131 -5.362459005004 88.594346470121 -17.654150725224 -44.822625540983
5.004166000000 -7.182738232639 -42.297276284879 -6.448359312807 92.211257966417 -6.064575830513 84.137220847485 -17.711683875462 -45.052979656424
5.016164000000 -7.259313397021 -42.246920313663 -6.498433355513 89.776606333500 -6.980890652658 83.387438846581 -17.754815189459 -44.784673918714
5.028162000000 -7.178871594600 -42.423339159072 -6.650956205287 87.566485761902 -7.627381329702 86.260326187646 -17.727250556909 -45.754919573050
5.040160000000 -7.100129643751 -43.781924348194 -6.902062512489 86.320015693730 -7.704139886830 91.187207616587 -17.638719573719 -47.452583478770
5.052158000000 -7.135986387281 -45.211579439394 -7.093717803452 86.228827093098 -7.104578163686 94.847945131874 -17.655118336661 -48.355633426279
5.064156000000 -7.102065468269 -45.497624544247 -7.144476901901 87.084080308070 -6.235438680821 94.687491481844 -17.476358586853 -47.951140817427
5.076154000000 -6.921775899897 -45.226951200809 -7.072350390013 87.440054550970 -5.552720629377 90.042262679643 -17.225044657507 -48.215104405495
5.088152000000 -6.827986065073 -46.566647537236 -6.856312783636 87.152622904342 -5.409236598938 83.269702003397 -17.025222472507 -49.272447748965
5.100150000000 -6.929538747604 -48.329600077441 -6.642304217144 85.720083364013 -5.934501156523 77.207773362607 -17.024384078359 -51.025169996728
5.112148000000 -7.092340453513 -48.793355835680 -6.576284020393 83.368120201876 -6.823052260129 74.981109430749 -17.134413231906 -50.799763617533
5.124146000000 -7.052709572246 -48.724935788598 -6.686614766206 80.709198985210 -7.628471451354 76.427435438329 -17.237329281048 -51.683959636718
5.136144000000 -6.962883701755 -49.438134969579 -6.888986603684 78.912768394900 -7.985396128071 81.024209075002 -17.261671082493 -54.094119499282
5.148142000000 -6.943647457234 -51.100820346810 -7.123036679534 78.455131458101 -7.675078475994 86.057071369176 -17.244988837015 -56.201560211429
5.160140000000 -6.986094370655 -51.840174413364 -7.284123257681 79.106855282895 -6.785730016922 88.060607011173 -17.107183157838 -57.569232940219
5.172138000000 -6.866880331844 -51.639945493892 -7.261242845626 79.794625325878 -5.858779129649 85.276360577124 -16.798399025996 -58.103088045323
5.184136000000 -6.673694814170 -52.091623784397 -7.048966026544 80.174217995425 -5.386141912942 78.885884224911 -16.296196179961 -59.045828523386
5.196134000000 -6.662188413288 -53.803757063184 -6.803621907613 79.166328086432 -5.594415642379 71.585053173378 -16.084368238085 -60.700082446181
5.208132000000 -6.865671118742 -54.762510372790 -6.644079740693 77.043258518223 -6.365710332670 66.969009238509 -16.184910924856 -60.465564576909
5.220130000000 -6.953852941685 -54.515679263243 -6.657127426192 74.243178163961 -7.309506611806 66.624261877545 -16.236238285638 -59.811539352549
5.232128000000 -6.890041942820 -54.722433716291 -6.829936906678 72.125914352927 -7.968362843737 69.946059577295 -16.285977338036 -60.666343456355
5.244126000000 -6.838762426926 -56.211205346036 -7.112218279437 70.705131110210 -8.045624252354 75.229029730568 -16.345175107473 -62.548261964937
5.256124000000 -6.839336825320 -57.691144456109 -7.343616727152 70.913524831128 -7.386936142344 79.054128512692 -16.192174810387 -64.595746677069
5.268122000000 -6.791965291528 -57.929872190480 -7.431086211264 71.962650247443 -6.444931154289 78.675022647416 -15.969070799447 -65.215707583122
5.280120000000 -6.613540650648 -57.855366007585 -7.294136029417 72.793224076825 -5.691117460703 73.462419102304 -15.505294562126 -65.622817452289
5.292118000000 -6.560352791504 -59.364802935586 -7.010328459858 72.620877932751 -5.612076625673 66.044443948802 -15.157706936805 -66.692487909612
5.304116000000 -6.736860361643 -60.707812918797 -6.722196063632 70.928544768284 -6.219042832488 60.078449447184 -15.146399105853 -66.675603896145
5.316114000000 -6.925395678355 -61.105696419120 -6.594359549097 68.197628595638 -7.129250084070 57.716396843829 -15.288966079564 -65.121174664787
5.328112000000 -6.910355680303 -61.234959542492 -6.671802897912 65.232763345920 -7.970604963644 59.644858855297 -15.407884385249 -64.137459353539
5.340110000000 -6.728410243045 -61.748965102115 -6.943199328460 63.243846983020 -8.367307032988 64.717783982337 -15.477969269248 -65.213934787920
5.352108000000 -6.628075446599 -63.323232762629 -7.253734659770 62.409505067342 -8.058225264885 70.055000608326 -15.564770621678 -67.336652003855
5.364106000000 -6.713369757095 -64.275169313011 -7.504148051158 62.785419686766 -7.080660150838 72.093801490558 -15.533413923791 -68.846394953238
5.376104000000 -6.668463150026 -63.180713236340 -7.501875658399 64.322492440204 -6.119438555000 69.240024853017 -15.312514777536 -69.137966618979
5.388102000000 -6.593464081977 -63.846193055142 -7.326099532253 64.824593937987 -5.679092747960 62.739930639913 -14.958874582542 -69.702393064014
5.400100000000 -6.567551000800 -65.534686301088 -7.028636053851 64.284583875237 -5.924210988570 55.572654728963 -14.894194966086 -70.718702148006
5.412098000000 -6.652932932495 -66.186632724142 -6.770006992648 62.198335339472 -6.703644383081 51.218953619747 -15.060752551488 -70.813590150405
5.424096000000 -6.684414614382 -65.308072296023 -6.764036399795 59.317098510618 -7.616423490776 51.149572050252 -15.217538781438 -70.041158914219
5.436094000000 -6.625844969458 -64.882506716035 -6.911508514328 57.033614796106 -8.305079629879 54.553880291788 -15.354857477057 -70.660288889939
5.448092000000 -6.641088785796 -65.933942826929 -7.222675774499 55.261040890566 -8.370416209230 59.835615901883 -15.385285769832 -72.667049046626
5.460090000000 -6.774838463526 -67.709986310982 -7.506909013547 54.987524756103 -7.704265515904 63.833967532834 -15.446528241338 -74.561890238136
5.472088000000 -6.752053783203 -68.380562530065 -7.625662229185 55.847808870207 -6.687977157102 63.231897769355 -15.270664714381 -75.632479551534
5.484086000000 -6.617882982580 -68.834480855518 -7.537132343283 57.114442845813 -5.941608031307 57.962172738337 -14.881100041194 -76.331081572216
5.496084000000 -6.404443987925 -70.122951477933 -7.247122945106 57.499931002009 -5.845673858213 50.490109608653 -14.600250699522 -77.901306431393
5.508082000000 -6.490534706214 -70.888586864522 -6.948292761730 56.086049989216 -6.451391256167 44.479051228280 -14.588222135603 -79.032048520917
5.520080000000 -6.612211369171 -70.086940556860 -6.811311153571 53.228609469983 -7.372722333537 42.006192938507 -14.720101504583 -77.207336213967
5.532078000000 -6.674866760344 -68.719094727102 -6.906753979716 50.440239766377 -8.218616868109 43.852734280144 -14.861594497837 -76.161770539696
5.544076000000 -6.694080663724 -69.705010300354 -7.150000016759 47.937278798988 -8.675136982551 48.757770946760 -15.016456969746 -77.444974377689
5.556074000000 -6.755748827685 -71.516141098476 -7.441584953485 46.969999525131 -8.426432286678 54.417735513350 -15.207562464059 -79.721916996305
5.568072000000 -6.842159539658 -73.493064600510 -7.641372914002 47.313035625897 -7.511129356069 56.823939443425 -15.281715509104 -81.590957250020
5.580070000000 -6.749773880518 -73.763468441579 -7.662465803965 48.567114779625 -6.510784207298 54.190446269599 -14.941514031758 -81.961845467289
5.592068000000 -6.579434865806 -74.480545051019 -7.461390183564 49.446037261661 -6.018069322351 47.312559306029 -14.524760024964 -83.559255179408
5.604066000000 -6.499344562412 -75.757742806762 -7.133249033086 49.018199243806 -6.256848247672 39.971381120829 -14.359997491492 -84.683608572691
5.616064000000 -6.582123792490 -75.739705094794 -6.911729382949 46.835158239821 -7.008599308400 35.530123594198 -14.416845471066 -82.804987163949
5.628062000000 -6.656661750986 -74.338296638295 -6.845385772537 44.162994798094 -7.906088071669 35.128405114744 -14.683535474114 -80.516360805088
5.640060000000 -6.734418901834 -73.940561946038 -7.046166905136 41.433236393259 -8.584843965704 38.431844630580 -14.895504446659 -80.597419709152
5.652058000000 -6.734860528304 -75.234965213837 -7.327641361356 39.724327853200 -8.741668097700 43.875305255211 -15.235857720400 -82.754650304284
5.664056000000 -6.857853307425 -76.899309020611 -7.615093622842 39.471454744843 -8.127585578309 48.506018029154 -15.221291450690 -85.434723793902
5.676054000000 -6.925751236222 -78.003322802560 -7.738565395789 40.338038080123 -7.132206613770 48.568453487966 -15.065483276562 -86.986803388199
5.688052000000 -6.808291114698 -78.180203036614 -7.653674693942 41.510198594354 -6.373484096701 43.510616839938 -14.768362615212 -88.500815171312
5.700050000000 -6.672644665339 -79.699226598490 -7.361818390507 41.986676149059 -6.192069958705 36.240989486409 -14.387626089556 -89.618522816594
5.712048000000 -6.739553193450 -80.644270226623 -7.057196952982 40.761149848828 -6.690924992647 29.982481383936 -14.376655922204 -88.635310244896
5.724046000000 -6.859097100302 -80.086030927153 -6.864485701772 38.119940836603 -7.547422170410 27.620528515805 -14.529788276832 -86.261744779932
5.736044000000 -6.923681181481 -79.137536420369 -6.931761016877 35.079239190075 -8.331518890339 28.786422336488 -14.898379738365 -84.609401654012
5.748042000000 -6.885922492096 -80.277726455708 -7.150573034081 32.530053130318 -8.755090022393 33.226446486473 -15.170320064055 -85.632152219716
5.760040000000 -6.845743656608 -81.715985289785 -7.471799284852 31.330215488667 -8.560808861482 38.581123503349 -15.466449779235 -89.011812182084
5.772038000000 -6.900079253552 -81.982725400688 -7.659592234696 30.578205830490 -7.700522365632 41.295394024523 -15.450307846480 -91.899638765372
5.784036000000 -6.920433336153 -82.468461859331 -7.744788375976 32.532352585518 -6.764985020844 38.716485938571 -15.117492262144 -93.710051195670
5.796034000000 -6.856324353699 -83.059432798669 -7.576669734079 33.821004614462 -6.277279833748 32.413029515850 -14.627885197711 -95.036852177787
5.808032000000 -6.794750172092 -84.043467630893 -7.285817111779 33.609097487936 -6.453976245473 25.535771733940 -14.383303230748 -94.311081914262
5.820030000000 -6.917809664101 -83.967132336323 -6.985312199014 32.025292583065 -7.152269132607 21.133319383911 -14.473322928530 -91.918236043529
5.832028000000 -7.116395248562 -82.850766237009 -6.931587154328 28.942171195680 -7.945755634778 20.224338034850 -14.679871127074 -88.343107152874
5.844026000000 -7.127134813791 -82.866897150735 -7.058876904195 26.348680796344 -8.603678333594 22.842570342418 -15.072331283457 -87.581492918697
5.856024000000 -7.046063799823 -84.219853149207 -7.327389829636 24.332738132175 -8.785505696885 27.547576627272 -15.521298658379 -88.859620657513
5.868022000000 -7.109386948195 -85.762780405456 -7.623425421861 23.470281429279 -8.321343299928 31.804544707285 -15.902950125732 -91.670506949513
5.880020000000 -7.134359378635 -86.282481781736 -7.735001539268 23.878784597080 -7.444081936921 32.001141901079 -15.869356388514 -95.216819757055
5.892018000000 -7.110187963247 -86.226567538867 -7.672379169462 25.024113076679 -6.716456364983 28.158023304729 -15.431049453090 -97.279542992135
5.904016000000 -7.038154520352 -87.457800042185 -7.477706518980 25.873106615266 -6.546584599534 21.766921103909 -15.056530086321 -97.845585008307
5.916014000000 -7.103953206391 -87.620179216618 -7.221690496114 24.806793477502 -6.989138274435 16.517705193831 -14.906931159405 -95.711628912089
5.928012000000 -7.278386319420 -86.905016706074 -7.019184787676 22.611985121019 -7.711568416179 14.487912102569 -15.054637320656 -92.009081912474
5.940010000000 -7.328910162749 -86.314637827678 -7.023499664224 19.757122436908 -8.381608599747 15.080241966532 -15.443427008772 -89.033406947607
5.952008000000 -7.312630275653 -86.956596386036 -7.217145669302 17.269661192602 -8.698226613653 18.854122329956 -15.981471819796 -89.067717419758
5.964006000000 -7.379742341751 -88.321398249857 -7.493189410800 16.016918978651 -8.429794160789 22.672865016702 -16.558081235319 -92.055679803202
5.976004000000 -7.467836001550 -89.144722894156 -7.679763104328 15.773633935595 -7.704080657521 24.242454815124 -16.868544275425 -95.629102487518
5.988002000000 -7.410491958820 -89.542766942382 -7.754286414348 16.520352178906 -6.960478210411 21.222866816827 -16.714518941274 -99.128353838840
6.000000000000 -7.338157059979 -90.296271314477 -7.656822858845 17.228316341787 -6.633550237843 15.581523188659 -16.251108179151 -100.164332794902
