# GHZ S DB R 50.000000000000
0.001000000000 -10.561897797959 79.304867151085 -4.726850029597 -169.731221391324 -4.829868060297 -169.707512893383 -15.722536614138 122.941275696528
0.012998000000 -11.489214774165 6.664788088622 -4.036071390028 178.403179680946 -4.030212170261 178.499467478261 -31.478598685814 125.026740182180
0.024996000000 -11.575283917633 1.174503026513 -4.102597107594 175.340922854159 -4.091437564703 175.658799482309 -33.135953825751 129.917065578895
0.036994000000 -11.450831768108 -0.621411027219 -4.043567165468 174.288977802349 -4.038157228690 174.530339870425 -33.880451388222 125.642417442747
0.048992000000 -11.377182690816 -1.983762863397 -4.040395578831 172.706470627082 -4.035811425996 172.954456533617 -34.256767802338 120.251036093584
0.060990000000 -11.325066637175 -3.274636129541 -4.039848615754 171.248800198360 -4.039089438431 171.434119438639 -34.545010853533 116.575342592199
0.072988000000 -11.300929035751 -4.649564009594 -4.044075089078 169.660448691407 -4.040574956231 169.818067409335 -34.415408592992 113.678835750859
0.084986000000 -11.307427309020 -5.800588808628 -4.050815397898 168.077110174240 -4.045580388004 168.206088668198 -33.961587257544 111.721352991063
0.096984000000 -11.318185017069 -6.703794257667 -4.062273503590 166.529060216005 -4.050974550538 166.666674109378 -33.164926822496 109.462857859515
0.108982000000 -11.317821453829 -7.305200354284 -4.072235604809 165.073480197201 -4.055772375291 165.192405683851 -32.261238569978 106.335503859499
0.120980000000 -11.289484259518 -7.800130185603 -4.072215863432 163.654517807215 -4.053213214386 163.739640269753 -31.504696776559 102.022113187284
0.132978000000 -11.230856405685 -8.350602492953 -4.064143873178 162.177281695147 -4.052297743781 162.217036744332 -30.964499791613 98.217554544785
0.144976000000 -11.160189610664 -9.053860713593 -4.057781700951 160.758926989791 -4.056642595084 160.785659731457 -30.724945506593 94.826186295860
0.156974000000 -11.098574347007 -10.073702665082 -4.054974437109 159.265469610985 -4.063632425576 159.314931369856 -30.547083292419 91.783050163099
0.168972000000 -11.059715990482 -11.279324716053 -4.051106008824 157.656355547790 -4.063043226406 157.780029556354 -30.262130924488 89.444230569230
0.180970000000 -11.044007315293 -12.363375297846 -4.057784969077 156.065020559583 -4.058297475596 156.213484314082 -29.894657421749 88.270271034163
0.192968000000 -11.034768471287 -13.303625527872 -4.063534243455 154.496754584732 -4.043229263622 154.662810304445 -29.409003307766 87.178636324459
0.204966000000 -11.014514280589 -13.978251683364 -4.073276928433 153.026102877098 -4.040965493134 153.143415303994 -28.753749815143 86.094877039806
0.216964000000 -10.979731505775 -14.563515869793 -4.071050791233 151.606854198978 -4.034583661425 151.598434845981 -28.192665498121 83.872840441110
0.228962000000 -10.914924489663 -15.239101971109 -4.061312701356 150.082097949594 -4.034228243040 150.060633832811 -27.807216392947 81.642013737737
0.240960000000 -10.835857786913 -16.101661171112 -4.049950639564 148.490686845324 -4.046689822497 148.455025525237 -27.578059728897 79.179060480507
0.252958000000 -10.767024023920 -17.164498526155 -4.044911951571 146.930041693543 -4.060478957427 147.002334443373 -27.490725384632 77.352124811641
0.264956000000 -10.726247732459 -18.319220638563 -4.044579787035 145.392392962370 -4.058455480518 145.599520115305 -27.388319312204 76.037444412008
0.276954000000 -10.714945877458 -19.397610392780 -4.044231697203 143.799933559889 -4.046685703621 144.147180860280 -27.200158866440 74.747742331548
0.288952000000 -10.704224459870 -20.342269886966 -4.052137850830 142.288841157079 -4.028336868062 142.595467708495 -26.843824255790 73.761578239320
0.300950000000 -10.685537452427 -21.157923886573 -4.056828296982 140.837923657934 -4.008242680803 141.076611307419 -26.342842325911 72.449846699435
0.312948000000 -10.641522406300 -21.771672380548 -4.049559009319 139.468554047916 -3.994326956277 139.642032209851 -25.881306412752 70.463677938354
0.324946000000 -10.567971727794 -22.684856286481 -4.038207819107 137.903454586302 -3.995025618070 137.835641963683 -25.490229276991 68.771927332838
0.336944000000 -10.471654149253 -23.690530355117 -4.024972177315 136.314361287154 -4.015141564244 136.178687724892 -25.241902101093 67.439896652156
0.348942000000 -10.384007231006 -24.871791329386 -4.020861101034 134.670886236156 -4.043658551038 134.631654447030 -25.082757263263 66.238703615218
0.360940000000 -10.332838519122 -26.121179427521 -4.021253685920 133.109156200382 -4.050732901417 133.250128607078 -25.001034975151 65.761984024378
0.372938000000 -10.314436201559 -27.257909116953 -4.029184768251 131.543562562102 -4.041429295629 131.885417878740 -24.911735213229 65.264848130291
0.384936000000 -10.307677031902 -28.254690666495 -4.033967107092 130.039680184344 -4.009475068003 130.439940303889 -24.662330342597 64.534785950780
0.396934000000 -10.292687124882 -29.108334965824 -4.039340641848 128.579393357163 -3.979874862525 128.848610356692 -24.317174230001 63.422983843122
0.408932000000 -10.257993387529 -29.921191861324 -4.030231159548 127.126684302874 -3.956116788418 127.240097731334 -23.949741744731 61.896622298536
0.420930000000 -10.187339503360 -30.761742994502 -4.015691138437 125.628383561105 -3.953688342541 125.506685120871 -23.664580884930 60.408555228219
0.432928000000 -10.097204480923 -31.741972032771 -4.001537206192 124.021139208157 -3.983167749929 123.749939008845 -23.418424034943 59.193831920656
0.444926000000 -10.002879841225 -32.959280110299 -3.991910688289 122.379696448250 -4.025918686314 122.151379633676 -23.276881874087 58.507109519198
0.456924000000 -9.948167655664 -34.241896870142 -3.995282605391 120.762126391720 -4.051879994167 120.840201972294 -23.234475457184 57.998351435760
0.468922000000 -9.925863742006 -35.421375831253 -4.002961185638 119.192317027739 -4.041163964147 119.555893740278 -23.166732274334 58.090976299329
0.480920000000 -9.915425093725 -36.531581871567 -4.017454066987 117.636042132460 -4.003228691407 118.211511488572 -23.033562355295 57.843160276493
0.492918000000 -9.892821292837 -37.534603354113 -4.024222227914 116.125159316153 -3.953407516439 116.658838925902 -22.810014199257 57.085808269245
0.504916000000 -9.869512189292 -38.509864487501 -4.022694281364 114.681072527384 -3.912428188757 114.925754082314 -22.531727500541 55.783737727276
0.516914000000 -9.812728792300 -39.460136821642 -4.003238659891 113.196581113441 -3.894257588802 113.070033402806 -22.283731806602 54.284807500204
0.528912000000 -9.723609124508 -40.514978763361 -3.983489781694 111.640172133573 -3.920897462368 111.192081493940 -22.083712073046 52.939398556846
0.540910000000 -9.622005245208 -41.766533755294 -3.966519008195 110.005721611327 -3.979679938823 109.490769853699 -21.911993417031 51.811189341837
0.552908000000 -9.546284320020 -43.131225126521 -3.967501107202 108.307185418544 -4.033127206238 108.086586249799 -21.785491000043 50.918021073190
0.564906000000 -9.514490275499 -44.416511940204 -3.982524749099 106.633109455461 -4.045682893295 106.898366098908 -21.678344761214 50.321559938906
0.576904000000 -9.493281140497 -45.461620582671 -3.999840224049 105.135206873517 -4.007532788446 105.621427972631 -21.561495540071 50.009754488200
0.588902000000 -9.481128013248 -46.458292212911 -4.015742602091 103.627638063133 -3.954811909768 104.153382097226 -21.357451177762 49.127807531768
0.600900000000 -9.466107127804 -47.505698729569 -4.010710257966 102.144473099969 -3.900368224591 102.447462074934 -21.106791522072 48.008688235846
0.612898000000 -9.424972292504 -48.458611845594 -3.999137958671 100.677174548744 -3.869865309078 100.524370691292 -20.865674744644 46.700430385574
0.624896000000 -9.355083622130 -49.610833693738 -3.974872441600 99.150168130105 -3.890403609924 98.579422994431 -20.662207113793 45.467483645130
0.636894000000 -9.251041182044 -50.940417458036 -3.948729421024 97.525281432143 -3.952581639923 96.776315150141 -20.488243869771 44.463098997262
0.648892000000 -9.171360494068 -52.440985512897 -3.939848770044 95.807658877328 -4.021232488056 95.275297271572 -20.342048534898 43.811999119302
0.660890000000 -9.130161459926 -53.905611068486 -3.953326004046 94.081373422667 -4.056563955126 94.030511639819 -20.220408417126 43.193358260123
0.672888000000 -9.102905794981 -55.136577503233 -3.976832412332 92.455701466556 -4.044666590611 92.793561036351 -20.069105480146 42.681503561388
0.684886000000 -9.074526636338 -56.215452788514 -4.004825514620 90.968346880246 -3.991916992786 91.410319481799 -19.884873600510 42.066631324591
0.696884000000 -9.049655210880 -57.214786185064 -4.017003239132 89.479481078390 -3.929487110786 89.673332397021 -19.673527010814 41.226908651288
0.708882000000 -9.006924248673 -58.314447509847 -4.005764775811 88.006390610210 -3.895586007564 87.685233852075 -19.482002863678 40.017420769385
0.720880000000 -8.933994639570 -59.324512039381 -3.983673179844 86.515611169056 -3.924855829854 85.623171210484 -19.298068266637 38.906602888158
0.732878000000 -8.843904638015 -60.549164045220 -3.954519909982 84.914469964307 -4.012678743390 83.745973467317 -19.121957156805 38.107672235278
0.744876000000 -8.771943666741 -61.984732271349 -3.945305906017 83.179380995290 -4.118011726696 82.312985163497 -18.976688653772 37.516659267064
0.756874000000 -8.750042553613 -63.485142994594 -3.959090002840 81.331622123910 -4.174378018402 81.251046058835 -18.899325010133 37.175758071177
0.768872000000 -8.739364216797 -64.731320309117 -3.989227814100 79.634593029710 -4.165111461800 80.328557681003 -18.801644386065 37.057425327977
0.780870000000 -8.720575474491 -65.811143294826 -4.036186395766 78.127626483050 -4.094129845726 79.177557841176 -18.658701780919 36.794203598675
0.792868000000 -8.689964023658 -67.000028849241 -4.056767029064 76.676100832266 -3.987661133401 77.609760919660 -18.496901606841 35.992858831881
0.804866000000 -8.668294965587 -68.302689519745 -4.058616330429 75.226280410157 -3.910048857608 75.558700739863 -18.331937766799 34.708056718660
0.816864000000 -8.618971592308 -69.442290958360 -4.043893171276 73.761954841519 -3.895472898164 73.272531031704 -18.182433635065 33.235883198282
0.828862000000 -8.533191816104 -70.645114132548 -4.015626238262 72.321347227039 -3.967504561548 71.061910411251 -18.000867292616 32.065247041463
0.840860000000 -8.436393354746 -72.098987543247 -3.982528991053 70.537221411277 -4.099372135608 69.269437476581 -17.825202304467 31.019604994196
0.852858000000 -8.391529296321 -73.634766714897 -3.976560758723 68.669964478027 -4.208850867737 68.104329858764 -17.696308548819 30.185770046023
0.864856000000 -8.377878487733 -74.975898432200 -4.000087960074 66.799616401238 -4.241872840185 67.249072279286 -17.600507640761 29.693116318030
0.876854000000 -8.374202702550 -76.156151466474 -4.055505457877 65.166052321259 -4.193613095939 66.311299625559 -17.482387646807 29.479549322803
0.888852000000 -8.360267164603 -77.404426224602 -4.112074283249 63.720723693296 -4.091432294440 64.973146195171 -17.310814657067 28.758583727043
0.900850000000 -8.344839300861 -78.806550539618 -4.125308678243 62.297539389815 -3.976034791237 62.980931361628 -17.178229158746 27.550006175095
0.912848000000 -8.324689356836 -80.073541469546 -4.121557111051 60.878446900488 -3.932518946825 60.648734689729 -17.010622546661 26.242351158093
0.924846000000 -8.257331358493 -81.343161471512 -4.104087757675 59.446771752148 -3.974729488424 58.169313435624 -16.843338600480 24.842396476666
0.936844000000 -8.152088323340 -82.810377136992 -4.060173979374 57.799751247533 -4.127592365276 56.179767524899 -16.662754881999 23.753462142976
0.948842000000 -8.081466597901 -84.366144911776 -4.027343915038 55.894103237335 -4.279752027299 54.737703352401 -16.480361132223 22.777419004738
0.960840000000 -8.065145101067 -85.826027672980 -4.038508960179 53.881331931165 -4.373125350506 53.908234785960 -16.389713627400 22.061885897594
0.972838000000 -8.066609315001 -87.024375798594 -4.091865656256 52.016299036661 -4.363083963897 53.182546333137 -16.269148357933 21.737820154750
0.984836000000 -8.055545269251 -88.100709928142 -4.166574477240 50.537607820497 -4.265937280312 52.193550389801 -16.114458023565 21.282171988784
0.996834000000 -8.049287233107 -89.285733911798 -4.226801797139 49.249140770582 -4.138444101269 50.525899568539 -15.939396147539 20.469542547826
1.008832000000 -8.056111630366 -90.715975202302 -4.247676978372 48.015279102711 -4.044307177666 48.194729004262 -15.788373190510 19.349738602732
1.020830000000 -8.029705829883 -92.017725426754 -4.232629494609 46.636664416735 -4.035358181176 45.505244534171 -15.652890726463 18.106055769868
1.032828000000 -7.934177025352 -93.455479693225 -4.185484572204 45.093279143705 -4.161815733977 43.035616836763 -15.520765342104 16.932617574383
1.044826000000 -7.849966153634 -95.117402238913 -4.128491538910 43.267359806327 -4.365199593444 41.325209688121 -15.372436043663 15.820284787011
1.056824000000 -7.820768858840 -96.782341180621 -4.117073204294 41.178213567058 -4.527665706244 40.405113060682 -15.288624742271 14.815770393463
1.068822000000 -7.828615063739 -98.053621892985 -4.158527681481 39.096055019472 -4.580628404139 39.881771316183 -15.201852615963 14.117605647734
1.080820000000 -7.840295546509 -99.124441344275 -4.233694422174 37.355155162272 -4.519455618789 39.224763343177 -15.063547739974 13.677393860599
1.092818000000 -7.812987795558 -100.299330100277 -4.328162702025 36.048317460272 -4.366929236017 37.999214308804 -14.882301469637 12.882115099858
1.104816000000 -7.831392012697 -101.647665425496 -4.394953309026 34.928405510555 -4.234341536247 35.959070333123 -14.715987922010 11.615267544411
1.116814000000 -7.839013002417 -103.129314656135 -4.398114009831 33.669804289375 -4.164957477437 33.254613380525 -14.595035519245 10.425422098207
1.128812000000 -7.766543573928 -104.498140908903 -4.353014557090 32.306464541675 -4.242788311626 30.451119204633 -14.456492941567 9.142118724681
1.140810000000 -7.687243075274 -106.067711436116 -4.285042775373 30.554570374901 -4.447018092815 28.335701179015 -14.290921069766 7.863253841679
1.152808000000 -7.644160558360 -107.868906123403 -4.243381633385 28.421789107208 -4.662543020198 27.152681846564 -14.180599853933 6.653508987990
1.164806000000 -7.661258397622 -109.304776322219 -4.250874238798 26.135841632671 -4.777092604641 26.771657900011 -14.104808788993 5.770919424280
1.176804000000 -7.684333067673 -110.328085151750 -4.332449231069 24.125582090572 -4.750097362883 26.339538814089 -13.978742475477 5.426398331415
1.188802000000 -7.665389311429 -111.567106415245 -4.457674617789 22.562478435658 -4.595817654023 25.442921088035 -13.810982989176 4.903125959156
1.200800000000 -7.687116697977 -112.885338233409 -4.574532664112 21.527494257374 -4.433744727298 23.721477709394 -13.628816613954 3.711410961877
1.212798000000 -7.739023482612 -114.451148058572 -4.619607634713 20.604088038465 -4.307609352312 21.048573885969 -13.493318945811 2.391467236614
1.224796000000 -7.708654323264 -115.830522305077 -4.591055242148 19.505076454757 -4.320555353197 17.898080168686 -13.393764009430 1.078606743637
1.236794000000 -7.629687075695 -117.224068150932 -4.519161056785 17.923019437649 -4.505669395777 15.006486182469 -13.250222204571 -0.151618095539
1.248792000000 -7.561603781423 -119.110657328946 -4.446757756659 15.924525631665 -4.793847098759 13.384697653589 -13.110433816521 -1.233996485786
1.260790000000 -7.564070643739 -120.772381577466 -4.401972733028 13.584921379444 -5.017698644018 12.888055495660 -13.013021128564 -2.223198778803
1.272788000000 -7.606500716943 -122.130348546449 -4.434631449208 11.228238445546 -5.073513966288 12.816151382767 -12.927143842141 -2.652231802098
1.284786000000 -7.608443587240 -123.278144561809 -4.559205912529 9.225364923672 -4.958812253218 12.470572844906 -12.814636838740 -3.111875120957
1.296784000000 -7.626616996179 -124.401791595613 -4.713760938129 7.994298108744 -4.774482911876 11.253968981376 -12.633284615819 -3.963348171222
1.308782000000 -7.661760574583 -126.053032323430 -4.822388533314 7.167035399662 -4.605683327898 8.990299434053 -12.492452549047 -5.229542443001
1.320780000000 -7.656217046726 -127.583682732891 -4.835260396432 6.324013879002 -4.547637163483 5.887684255834 -12.401179123998 -6.492721057986
1.332778000000 -7.615014016022 -129.070042085148 -4.765802206553 4.937621377142 -4.680784678439 2.533900527787 -12.265366018265 -7.686297592626
1.344776000000 -7.553282574318 -130.782677896711 -4.692298824045 3.104656040911 -4.983662669627 0.341357803845 -12.149231460397 -8.945740593203
1.356774000000 -7.555310950856 -132.467973006469 -4.622797923495 0.829053319861 -5.283726681271 -0.372616125759 -12.040843525359 -10.098342092288
1.368772000000 -7.619537638714 -133.865926149815 -4.639467815421 -1.757113367622 -5.423376645830 -0.257007706086 -11.974377160274 -10.753812428980
1.380770000000 -7.633143442618 -134.871077380579 -4.764864150670 -4.082340331048 -5.360961641026 -0.214148050807 -11.896664000193 -11.112201268333
1.392768000000 -7.648761008928 -136.045704188229 -4.962062657494 -5.612337628655 -5.174613043770 -0.901664066259 -11.725995479629 -11.836809837764
1.404766000000 -7.685313232632 -137.670535571648 -5.115846681186 -6.263915463212 -4.976124453518 -2.785829559383 -11.576278391271 -13.044526769820
1.416764000000 -7.727323269813 -139.438695854925 -5.164629993474 -6.735904186837 -4.862799002870 -5.634119982346 -11.491205157250 -14.444859434427
1.428762000000 -7.720263319361 -140.971329858348 -5.111783717122 -7.642950693032 -4.923299261520 -9.024946784055 -11.400492768178 -15.645644786359
1.440760000000 -7.653450332270 -142.564199066838 -4.976196517756 -9.119977486403 -5.157716235842 -11.638123535320 -11.277380553908 -16.814240493716
1.452758000000 -7.645011946639 -144.379468066031 -4.847787812942 -11.399137925879 -5.463181712081 -12.785647901611 -11.143836455065 -18.136363251889
1.464756000000 -7.716610708391 -145.979703404260 -4.809071700705 -14.230719539710 -5.625915547703 -12.701887299535 -11.061492270599 -18.952407267084
1.476754000000 -7.760327821121 -147.106149450101 -4.907380875601 -17.106370840358 -5.597791391407 -12.569619314759 -10.980533288325 -19.250036409366
1.488752000000 -7.794457325576 -148.309788471662 -5.139798667427 -19.334913173954 -5.418834709436 -13.181181808448 -10.826265467439 -19.673877312381
1.500750000000 -7.821861241701 -150.046072559637 -5.378552758903 -20.362930478697 -5.208286216810 -14.871958327284 -10.646662701407 -20.729759678760
1.512748000000 -7.842516082021 -152.078580434291 -5.536905355773 -20.551454697466 -5.054610565321 -17.760375175013 -10.582252673624 -22.256853912678
1.524746000000 -7.864550815401 -153.674255204369 -5.523031184780 -20.795979003495 -5.079841293592 -21.342196823223 -10.527809079303 -23.428046222327
1.536744000000 -7.840047382140 -155.031155809841 -5.395690689847 -21.742148148350 -5.336178090490 -24.491846933891 -10.442011210034 -24.520238231278
1.548742000000 -7.812969730554 -156.644167017911 -5.229703084535 -23.705138342388 -5.703130094229 -26.105732046856 -10.324079703441 -25.892982415656
1.560740000000 -7.866876051728 -158.405755036145 -5.112656214255 -26.533209569983 -5.951492799765 -26.000286133643 -10.239793147846 -26.974993029109
1.572738000000 -7.958859345589 -159.691855788950 -5.155260406515 -29.735135037318 -5.971393097109 -25.513112121647 -10.167631580113 -27.332129310124
1.584736000000 -7.997782246516 -160.818880800771 -5.347085044587 -32.594862209735 -5.806486034618 -25.611759931228 -10.029351043040 -27.658264674143
1.596734000000 -8.010374246534 -162.691182848007 -5.664767949480 -34.232390005893 -5.559232661722 -27.065559899961 -9.853301394613 -28.613473812293
1.608732000000 -8.042791137160 -164.770292139374 -5.925578613973 -34.452167145531 -5.354887659752 -29.728390336861 -9.748378979900 -30.046546580351
1.620730000000 -8.085780117502 -166.474676552054 -6.004533397108 -34.277971891597 -5.339791789300 -33.266778859269 -9.723226372993 -31.445021448634
1.632728000000 -8.102179607640 -167.686474574782 -5.897659818026 -34.589350016599 -5.546964438973 -36.766801011715 -9.671461348585 -32.452590001650
1.644726000000 -8.082444516229 -169.140065894471 -5.717002879473 -36.021236983191 -5.934162055747 -38.994391491060 -9.575100904215 -33.724498011263
1.656724000000 -8.128495819555 -170.845494544320 -5.551028968172 -38.623392687121 -6.262802947287 -39.246053312916 -9.485505992280 -35.004288358280
1.668722000000 -8.223568990425 -172.295706487317 -5.510184371939 -41.882618791303 -6.350501185577 -38.532945622199 -9.412901844484 -35.682119612850
1.680720000000 -8.310979945228 -173.546716555036 -5.659179053321 -45.179176026099 -6.231022102146 -38.288535915177 -9.288239122700 -36.024374740898
1.692718000000 -8.332987209178 -175.339745219979 -5.988867646816 -47.467117579169 -5.965729079696 -39.421152867841 -9.104402327002 -36.797902736735
1.704716000000 -8.362561538955 -177.649017430849 -6.317367810106 -48.235734194316 -5.722164075804 -41.943170608462 -8.993735007722 -38.207642556762
1.716714000000 -8.414292817807 -179.539764426225 -6.473977019382 -47.758935958624 -5.642239251033 -45.361312841067 -8.966832658646 -39.535138920525
1.728712000000 -8.448308047362 179.123115677722 -6.422642182205 -47.521216531339 -5.829969774637 -49.054468181778 -8.959414079563 -40.477160127472
1.740710000000 -8.445219190230 177.879144896693 -6.228874738490 -48.448997045211 -6.216969228661 -51.638116644095 -8.870638996040 -41.641618675485
1.752708000000 -8.473550297872 176.223366032783 -6.017083662160 -50.770282045187 -6.606276522235 -52.358391477661 -8.795988959148 -42.946056240893
1.764706000000 -8.575027065079 174.756019867634 -5.915910087117 -53.978564042873 -6.776953798139 -51.605666825494 -8.718776039332 -43.821442968542
1.776704000000 -8.691383867825 173.489855875321 -6.031072964416 -57.658070157846 -6.692609704172 -51.019500154610 -8.602237417820 -44.287924580009
1.788702000000 -8.741739473738 171.835906693839 -6.361960392223 -60.696328424576 -6.456401206056 -51.803099231233 -8.425781811957 -44.842116677732
1.800700000000 -8.793731374603 169.581567815749 -6.768033350876 -61.974348675593 -6.175589456784 -54.043286576639 -8.303103115245 -46.085702430655
1.812698000000 -8.873494633021 167.452645622526 -7.037777267811 -61.562566112963 -6.055409052506 -57.228404837292 -8.273664798139 -47.554463073438
1.824696000000 -8.941202502022 165.902830223349 -7.057801364215 -60.801204291488 -6.188710270492 -60.761395689367 -8.296788184074 -48.633240680015
1.836694000000 -8.956868802578 164.658769480253 -6.885936896373 -60.944282421411 -6.545146636351 -63.621134775550 -8.249866831103 -49.585981035242
1.848692000000 -8.981600906775 163.131610722388 -6.638969190656 -62.634033382450 -6.951410771966 -64.654549037692 -8.170805015279 -50.820912463482
1.860690000000 -9.076781790213 161.607616766500 -6.495670372952 -65.639792538687 -7.162078082536 -64.236382498192 -8.121460323740 -51.909386724249
1.872688000000 -9.204124265044 160.098606964833 -6.555649918103 -69.463454129186 -7.113635480325 -63.761177333296 -8.009264783062 -52.661818955059
1.884686000000 -9.290190603017 158.364562393056 -6.846839687549 -72.897331799136 -6.900433272922 -64.348921545425 -7.839027484673 -53.323780194408
1.896684000000 -9.370023091474 156.108784490978 -7.274768942783 -74.542637017425 -6.621923034931 -66.532394101895 -7.706451249302 -54.648600252019
1.908682000000 -9.464768539032 153.869833925114 -7.597120756318 -74.156652100050 -6.488812783106 -69.701456396885 -7.685779295154 -56.099563834629
1.920680000000 -9.536968684188 152.271031080240 -7.660139923465 -73.114166024484 -6.583126017993 -73.287559802263 -7.687630809022 -57.189522777589
1.932678000000 -9.574240973499 151.064327563516 -7.473778831144 -72.902405310352 -6.933923159794 -76.373255422175 -7.630744154422 -58.058492346863
1.944676000000 -9.612878231348 149.491670721257 -7.197508685144 -74.323824526337 -7.381859103945 -77.811399596266 -7.577492169575 -59.210386763758
1.956674000000 -9.712860268402 147.773637428603 -6.993673701109 -77.308534866040 -7.656873645164 -77.550973913113 -7.520019898905 -60.358829556065
1.968672000000 -9.875367864832 146.262346538355 -7.003576161389 -81.466650292837 -7.682622045632 -76.894097348920 -7.431105209357 -61.190956829033
1.980670000000 -10.008856182436 144.455648579359 -7.283395945789 -85.546268934074 -7.508649376337 -77.158881634185 -7.282497643097 -61.946629285318
1.992668000000 -10.110250135892 142.088452239053 -7.809628282037 -87.808363403660 -7.255915541065 -78.954070896760 -7.128191024986 -63.172087135479
2.004666000000 -10.219169764898 139.567168761217 -8.274925348220 -87.632086544867 -7.097523414018 -81.930178524631 -7.079846648442 -64.568546666308
2.016664000000 -10.305117967356 137.672384164604 -8.456437789676 -86.233346692914 -7.154765360536 -85.391020691039 -7.077328630699 -65.648357224726
2.028662000000 -10.346869318398 136.310286716530 -8.306993112160 -85.223062489656 -7.448701053484 -88.433694910549 -7.047182577999 -66.340660989498
2.040660000000 -10.387255855097 134.788162468665 -7.996933886562 -85.752816500570 -7.863978697812 -90.023216733307 -6.984289817946 -67.226203948753
2.052658000000 -10.471692652295 133.099764709059 -7.714196643365 -88.233132176761 -8.172848395217 -90.157828839847 -6.942698854156 -68.319657384872
2.064656000000 -10.628209444097 131.454269446437 -7.590669660813 -92.417954783586 -8.245074454473 -89.813730784979 -6.899688725044 -69.438532299165
2.076654000000 -10.784384709240 129.775654205798 -7.773275353666 -96.870414557213 -8.128586022727 -89.970962265575 -6.773985969291 -70.330863708488
2.088652000000 -10.928662476410 127.480265156958 -8.312245298852 -99.958391358942 -7.911058472959 -91.559167836401 -6.618742392139 -71.427676823108
2.100650000000 -11.078077697085 124.877979488636 -8.905110618778 -100.743480356157 -7.780309959242 -94.458413264383 -6.545711504431 -72.781395969609
2.112648000000 -11.187191349120 122.824557542417 -9.208747534580 -99.451915324368 -7.828134765414 -97.823707612276 -6.531510207383 -73.875134801275
2.124646000000 -11.286777125886 121.292111469452 -9.172836606114 -97.922842564692 -8.086793745507 -100.566442166308 -6.509245255985 -74.481257936907
2.136644000000 -11.370779379335 119.597594056418 -8.911240925992 -97.744324510239 -8.457463168441 -102.048591838425 -6.460412811474 -75.236112817328
2.148642000000 -11.480894569964 117.716366090724 -8.596252186354 -99.655493482750 -8.741213544536 -102.410194760133 -6.416218756814 -76.421706395660
2.160640000000 -11.640592191309 115.573532239264 -8.411439946840 -103.414233770264 -8.829337650999 -102.134246885128 -6.390354739477 -77.380252991465
2.172638000000 -11.825857847540 113.567133647735 -8.542589644178 -107.734232953028 -8.748365255340 -102.670642404125 -6.317968364184 -78.528898354566
2.184636000000 -11.982289094214 111.009760392017 -9.036597870523 -111.254484041458 -8.579273914065 -104.186876595998 -6.176287872297 -79.753048840608
2.196634000000 -12.127419169206 108.153226155810 -9.634155711960 -112.377197263182 -8.489685427320 -107.081248147204 -6.107555535695 -81.008329150867
2.208632000000 -12.235441556922 105.792990558204 -9.999328226631 -111.264151523079 -8.571975540782 -110.481176691458 -6.107123265124 -82.248420628723
2.220630000000 -12.315352051577 104.103181036872 -10.040153297711 -109.463016415593 -8.827589990657 -113.078966077896 -6.085178096497 -82.924422373378
2.232628000000 -12.382381163564 102.230139652049 -9.801589759766 -108.807849697693 -9.179953177125 -114.388955435540 -6.025083175675 -83.714094272046
2.244626000000 -12.475002070441 100.285916889799 -9.473536240023 -110.387242386026 -9.483147390621 -114.549500234711 -5.977529813152 -84.808887952900
2.256624000000 -12.634467994740 98.242594575068 -9.241414704436 -113.742191683302 -9.594869522283 -114.445627655702 -5.934606947600 -85.847255452008
2.268622000000 -12.828824376351 96.016972289881 -9.314459333631 -118.209032982209 -9.540568293153 -115.092788618923 -5.872386174769 -86.868855369120
2.280620000000 -12.998764708747 93.483192572025 -9.767892603624 -122.038281183397 -9.418604960120 -116.704941764036 -5.771788528557 -88.058286203236
2.292618000000 -13.182964982963 90.764297219288 -10.413964928273 -123.591103403666 -9.377185259778 -119.254456980484 -5.698531056896 -89.374503689830
2.304616000000 -13.341636439094 88.117754026256 -10.852858417434 -122.584161812284 -9.480409405525 -122.259684419580 -5.670903599833 -90.377416722420
2.316614000000 -13.464053196034 85.944737221204 -10.956484639713 -120.530051633591 -9.764417770684 -124.625607744995 -5.655024401541 -91.145952067957
2.328612000000 -13.527499305480 83.586046322717 -10.777406886647 -119.606767096090 -10.095804116664 -125.807652502446 -5.610032472959 -91.987325811917
2.340610000000 -13.618232092438 81.377689989230 -10.418052975461 -120.728750060590 -10.331353848299 -125.862518841646 -5.544509277098 -93.062904605633
2.352608000000 -13.761184338899 79.000370335813 -10.137043855409 -123.695454136142 -10.430232655091 -125.768746158470 -5.524376050054 -94.078769939967
2.364606000000 -13.943258368870 76.375096473822 -10.168309833695 -128.174099336276 -10.394956755669 -126.463898775558 -5.479235916743 -95.124123456576
2.376604000000 -14.094467978783 73.485386300334 -10.581404606988 -132.369306130828 -10.318521170660 -128.275194441126 -5.401425183282 -96.288828285050
2.388602000000 -14.248979476055 70.504397487772 -11.226934863847 -134.146478455694 -10.328344348130 -130.872112491259 -5.344954310569 -97.567105933624
2.400600000000 -14.373074239863 67.753482375092 -11.743686470173 -133.151428310753 -10.480889421389 -133.660110956408 -5.316365328915 -98.577246991462
2.412598000000 -14.478904004677 65.265151006935 -11.910485653834 -130.971819138054 -10.774060707649 -135.905737599067 -5.294600704428 -99.320079673926
2.424596000000 -14.508920262721 62.766009916553 -11.721608517439 -129.704347991521 -11.100412387339 -136.871840043265 -5.241480183648 -100.277182286180
2.436594000000 -14.562902808327 60.484740044966 -11.341465840551 -130.311166749256 -11.322640660835 -136.941594207097 -5.186314893327 -101.375834520896
2.448592000000 -14.714472593581 58.107203712284 -11.024449073986 -133.209526935803 -11.389895257939 -136.982484514653 -5.156484188838 -102.475722966976
2.460590000000 -14.917687797891 55.404664913508 -10.985615266668 -137.924223604132 -11.384273807021 -137.673565373263 -5.124962980747 -103.532914012671
2.472588000000 -15.100614396597 52.149649467325 -11.366869928624 -142.709806537126 -11.347295815107 -139.439073286747 -5.051389364693 -104.672734676980
2.484586000000 -15.227860941265 48.891396800144 -12.096871166563 -144.982716147913 -11.409970125920 -141.882231679185 -4.993609495860 -105.834187426712
2.496584000000 -15.365494830653 45.660832748308 -12.751752851633 -144.018124819290 -11.619660743574 -144.384529936030 -4.970506088465 -106.828408791122
2.508582000000 -15.408406004356 42.531707288964 -13.014623980528 -141.360188063872 -11.937665185670 -146.067116002707 -4.947370722414 -107.662492793578
2.520580000000 -15.393831651578 39.683404574852 -12.850869534327 -139.290944630299 -12.240474908885 -146.741483443707 -4.898833086116 -108.612803540779
2.532578000000 -15.387436896831 37.104665959211 -12.462125333782 -139.235368939960 -12.422601050408 -146.775464496769 -4.860992946439 -109.663046955696
2.544576000000 -15.471071708999 34.445536546772 -12.076399923003 -141.652355150236 -12.457216890593 -146.870339027736 -4.829119118674 -110.782706589430
2.556574000000 -15.611845797513 31.484609936880 -11.916684744309 -146.361702605853 -12.414770794368 -147.762724241172 -4.805147663812 -111.795099918691
2.568572000000 -15.707545434924 28.057000448494 -12.211034115240 -151.463465269783 -12.415001347399 -149.629615381906 -4.741825423489 -112.815533690795
2.580570000000 -15.754025924321 24.838262180693 -12.936429583328 -154.489223047917 -12.550046155073 -152.103948553204 -4.700485560570 -113.944717096421
2.592568000000 -15.836554474136 21.484166628776 -13.683865933821 -154.126246213475 -12.804823041965 -154.272146238873 -4.673086205863 -114.956258628882
2.604566000000 -15.821080935304 18.358456452914 -14.038503317969 -151.369656822784 -13.157663727786 -155.752226836503 -4.662968135525 -115.693621916404
2.616564000000 -15.809514320164 15.676315132604 -13.942387518316 -148.726440133009 -13.444730892848 -156.071455436528 -4.620084795801 -116.547969983948
2.628562000000 -15.803303202035 12.698811890064 -13.541117961310 -148.593714643378 -13.593044989688 -156.161470678775 -4.601741409139 -118.210039144182
2.640560000000 -15.831615634859 9.717291121317 -13.119700143858 -150.364483473437 -13.603652885236 -156.199744247675 -4.568447912194 -118.744805701359
2.652558000000 -15.891643628252 6.376375490053 -12.869127228002 -154.953061934554 -13.557772301482 -157.380499951606 -4.547193230446 -119.681102947986
2.664556000000 -15.903090496012 2.754899236966 -13.123232811856 -160.645912693031 -13.577082469424 -159.442587067852 -4.511274768812 -120.887148275971
2.676554000000 -15.851260481720 -0.544239414280 -13.914960870494 -164.516455240349 -13.772453681191 -161.915876136466 -4.457289697955 -122.044760285820
2.688552000000 -15.825638036166 -3.891147621534 -14.814802311978 -164.381070101631 -14.104016485736 -163.982477954344 -4.422946511355 -123.099315498192
2.700550000000 -15.705590953093 -6.590245730798 -15.317633515824 -160.959581357907 -14.490981124807 -164.862344193214 -4.399516928212 -123.981166538949
2.712548000000 -15.648322506679 -9.187388240453 -15.286505277235 -157.550419885618 -14.806774158531 -164.793061394644 -4.382021356889 -124.852347543150
2.724546000000 -15.537091565406 -11.667613271982 -14.867714947710 -156.042262851400 -14.944278727734 -164.355326482373 -4.366796554660 -125.966066647384
2.736544000000 -15.523231632724 -14.309074381403 -14.350656141133 -157.520536265656 -14.936310838891 -164.459046872779 -4.355167689358 -127.176448102423
2.748542000000 -15.544985558494 -17.273337261383 -14.001504126420 -161.975487497428 -14.854182014147 -165.555727677364 -4.331685923029 -128.283736071666
2.760540000000 -15.509552614201 -20.414889162925 -14.131011990999 -168.103473483786 -14.878318262782 -167.711704907861 -4.307402816020 -129.408768105532
2.772538000000 -15.416899861023 -23.432879789425 -14.886598688909 -173.087201820699 -15.072192715599 -170.259278031508 -4.237307131600 -130.529628831515
2.784536000000 -15.357118690617 -26.549773539339 -15.930938377025 -173.842355045120 -15.451106684188 -172.193581721490 -4.191176493260 -131.661276729789
2.796534000000 -15.267408993995 -29.156543490708 -16.658312761558 -170.235977223005 -15.890861634084 -172.811811411116 -4.176158199580 -132.567380251906
2.808532000000 -15.145414081564 -31.598672208666 -16.726721809955 -165.656446938314 -16.214906545851 -172.316304849308 -4.150701698572 -133.389886948870
2.820530000000 -15.040599091940 -33.950940369454 -16.323729690841 -163.016941756772 -16.336209576202 -171.635141868084 -4.130206924909 -134.275185669379
2.832528000000 -14.966922787308 -36.657958818490 -15.734327801306 -163.536847705475 -16.302855125944 -171.487147381284 -4.128104325581 -135.405260834331
2.844526000000 -14.907472976566 -39.447386285041 -15.218328378424 -167.267644024756 -16.207183821074 -172.731655588817 -4.112307591407 -136.501834650941
2.856524000000 -14.797893807240 -42.338087917887 -15.123583667861 -173.688557444652 -16.246620649289 -174.974553723990 -4.102235759884 -137.447852407525
2.868522000000 -14.651069836932 -44.533189006197 -15.748530276398 179.832674506386 -16.495000424295 -177.550546551627 -4.052737211364 -138.471610555016
2.880520000000 -14.566702581962 -47.158148396245 -16.884211790461 177.305936371274 -16.956964250012 -179.272726380178 -4.027462097689 -139.556252479204
2.892518000000 -14.466181445465 -49.211323971738 -17.910377004371 -179.875640305498 -17.406563278037 -179.507044599944 -3.989565013861 -140.559697994957
2.904516000000 -14.392046762933 -51.249394107227 -18.264861259097 -174.471999523879 -17.741301450693 -178.518204377682 -3.982061061264 -141.310248790292
2.916514000000 -14.292718309544 -53.322876567598 -17.975510720250 -170.319145984592 -17.842418478357 -177.207876148003 -3.986328820121 -142.035604973964
2.928512000000 -14.237419543184 -55.809437433154 -17.388717408009 -169.429416226751 -17.761764214152 -176.886789258315 -3.995656553434 -142.985787090657
2.940510000000 -14.147805996820 -58.942076053058 -16.787011543542 -172.214032936053 -17.660875163784 -178.129773288696 -4.000717118844 -144.343910692219
2.952508000000 -14.023273721984 -61.370077684351 -16.546892976389 -178.069810790225 -17.668890161976 179.573836639350 -3.993108812172 -145.137148522587
2.964506000000 -13.868330321306 -63.358974669733 -16.989151555901 175.047210599970 -17.940669673507 176.762428969413 -3.967659196919 -146.118800441261
2.976504000000 -13.766857628626 -65.637829434409 -18.115340123367 171.217685653100 -18.454748274274 175.023317102913 -3.952327541227 -147.243561704837
2.988502000000 -13.666802233578 -67.660403531676 -19.303820304562 173.249314711321 -19.006165190613 174.768564057515 -3.913226587728 -148.478599681949
3.000500000000 -13.591299164383 -69.645085961618 -19.892880039457 179.107946582907 -19.383920028883 176.127318865077 -3.888073551775 -149.507956547728
3.012498000000 -13.434896439756 -71.543551796638 -19.734058002640 -175.354748327974 -19.495273891285 178.003316621215 -3.881130510076 -150.315870421205
3.024496000000 -13.343993295555 -73.609321800612 -19.147490088899 -172.808935750527 -19.415099233725 178.839349043360 -3.873407037340 -151.275178680122
3.036494000000 -13.236481701487 -75.604096682256 -18.462842019687 -174.173421725453 -19.301089582445 178.208775999803 -3.891154564551 -152.361221373640
3.048492000000 -13.105605424723 -77.719021408176 -17.988169318464 -179.213159142422 -19.289990737212 176.072233848401 -3.885302368577 -153.524133464819
3.060490000000 -12.961419324667 -79.394728501732 -18.127103669858 173.532274579747 -19.545473189271 173.349962632927 -3.867263846127 -154.666414138016
3.072488000000 -12.852337913893 -81.014219908710 -19.084160178424 167.862218599188 -20.063444263248 171.617955617998 -3.832387199224 -155.818291911281
3.084486000000 -12.777798936981 -82.526998039072 -20.414117617907 167.858472548131 -20.660168949186 171.803860532849 -3.798613147587 -156.911086879803
3.096484000000 -12.704918899353 -84.136951935500 -21.304519137486 173.257014211623 -21.098882681581 173.756934371896 -3.785654569917 -158.012834110553
3.108482000000 -12.666336006742 -85.787745417392 -21.394772901989 179.917751978181 -21.225660130055 176.125333553159 -3.772855036097 -158.942009765865
3.120480000000 -12.614862222514 -87.561786967970 -20.896657647982 -175.815197097738 -21.150922119203 177.727100804647 -3.772156302585 -159.839156214665
3.132478000000 -12.552493452696 -89.817495046385 -20.185749053864 -175.686042249256 -20.960856816619 177.669950140817 -3.791291685560 -160.685068938271
3.144476000000 -12.451504194303 -91.920550554725 -19.615474208156 -179.466570883634 -20.915849024385 176.071577795169 -3.784589190648 -161.671613314348
3.156474000000 -12.322549038376 -93.784925229425 -19.556937985457 173.803396347888 -21.103201839653 173.423438590500 -3.785176597929 -162.626817111921
3.168472000000 -12.183751883146 -95.113867965056 -20.315844921271 167.255494443557 -21.593041997174 171.630262365108 -3.768522453924 -163.655159556388
3.180470000000 -12.076267820932 -96.671270414115 -21.672325490201 165.573957979011 -22.221664987512 171.843464473132 -3.761602996908 -164.813897017391
3.192468000000 -11.994319336171 -97.829233553616 -22.846102315778 170.279087117732 -22.722972623081 174.200222526702 -3.757741030098 -166.022007167436
3.204466000000 -11.940112646531 -99.066943661060 -23.185578715698 177.920671705973 -22.918543701777 177.243746567500 -3.757532858928 -167.112675727541
3.216464000000 -11.922534521050 -100.553115074088 -22.795994669454 -175.882105821630 -22.836164438623 179.600275176353 -3.784316594882 -168.113400981375
3.228462000000 -11.919608117830 -102.277683767189 -22.035918549516 -173.443600112444 -22.608573402556 -179.630133395850 -3.789293415347 -168.998863053775
3.240460000000 -11.849015126549 -104.364212932719 -21.303375704481 -175.464395511465 -22.454199877981 179.566723833908 -3.796682872749 -170.015242682291
3.252458000000 -11.752528074878 -106.141869255107 -20.990516881153 178.954654338388 -22.584914621255 177.765589293306 -3.793106441393 -171.042536623081
3.264456000000 -11.646032753189 -107.539865329704 -21.426748741668 172.161490852407 -23.009846223866 176.144709755280 -3.803752042460 -172.173562500734
3.276454000000 -11.537504180523 -109.046340218638 -22.605501522354 168.851154730629 -23.610377801778 176.380815925666 -3.806706792465 -173.293108869316
3.288452000000 -11.468039183296 -110.177153048467 -23.885451728667 172.231407316942 -24.108086102236 179.108891306641 -3.807612048917 -174.600040845656
3.300450000000 -11.433049752367 -111.319314998626 -24.493408294014 179.955767053602 -24.289102574966 -177.450532994157 -3.814243668831 -175.854614473669
3.312448000000 -11.419496165734 -112.523572711590 -24.272436487473 -172.500344320317 -24.130446755998 -174.375201831266 -3.810422216678 -177.024254308613
3.324446000000 -11.430962055075 -114.171679258590 -23.499530433667 -168.485485251766 -23.830496432877 -172.696643352422 -3.838070730299 -178.146091935448
3.336444000000 -11.408799651306 -116.134477280222 -22.650027083270 -168.675348441783 -23.580514411815 -172.950779065264 -3.842842359799 -179.149373748183
3.348442000000 -11.340743292172 -117.994236756590 -22.097607410775 -172.963543966915 -23.511463052133 -174.495369710479 -3.849727441683 179.725139470685
3.360440000000 -11.237884713508 -119.341392174221 -22.227863774146 -178.949475186554 -23.811540432442 -175.621679130519 -3.848000908289 178.710061358820
3.372438000000 -11.143064578378 -120.919967341952 -23.132849466274 176.974433038145 -24.287650428045 -175.150684063193 -3.845802807741 177.546338012618
3.384436000000 -11.068451074876 -121.852403388833 -24.354160031730 178.513453769967 -24.689318308938 -172.760095561455 -3.859463354689 176.327313809850
3.396434000000 -11.048619146947 -122.827858139698 -25.060510122098 -174.176332439202 -24.841838650715 -168.894367434603 -3.867443237379 175.096796877310
3.408432000000 -11.056368200693 -124.000973427620 -24.932661051568 -165.792806884330 -24.607249426271 -165.192499953891 -3.881644462235 173.962416632770
3.420430000000 -11.091890576476 -125.418129782953 -24.174761518308 -160.420913122713 -24.241732969506 -163.015895959204 -3.899835444114 172.850382783040
3.432428000000 -11.092277223410 -127.248795724309 -23.191402557040 -159.383213865072 -23.805069694850 -163.048878305040 -3.919578800597 171.820781913599
3.444426000000 -11.052181991753 -129.107734640857 -22.367429488977 -162.433337986280 -23.588867390064 -164.125669660176 -3.924184037273 170.747454602521
3.456424000000 -10.961925304531 -130.726010755911 -22.163176876133 -168.441230774491 -23.636463612191 -165.735087321195 -3.928630440213 169.721903173130
3.468422000000 -10.870990075008 -132.245904761306 -22.765387435481 -173.412828630334 -23.931761428932 -165.785962921754 -3.939557644531 168.682794729249
3.480420000000 -10.791980362257 -133.168504071126 -23.801751588429 -173.668338739393 -24.219184907624 -163.864445556821 -3.970907584786 167.516137171310
3.492418000000 -10.759899653752 -133.959508445288 -24.580615227225 -168.452233480607 -24.313845339962 -160.801134621280 -3.994097850480 166.340837358450
3.504416000000 -10.782221209872 -134.946650030189 -24.595704305572 -160.651533029450 -24.087679158263 -157.317701288041 -4.027542167019 164.959197641430
3.516414000000 -10.839858235647 -136.060471893523 -23.866794221319 -154.202147399709 -23.617256144852 -155.578913048889 -4.061048610565 163.740202155628
3.528412000000 -10.936498535272 -137.802553997046 -22.847493661674 -152.183124776377 -23.110032586018 -155.560950975066 -4.090588644153 162.257545834410
3.540410000000 -10.897060608781 -139.856547217384 -21.893934963608 -154.640226944577 -22.811301006160 -157.083429605849 -4.098491549382 161.361937959022
3.552408000000 -10.857293435567 -141.571232588110 -21.428191488503 -159.903969568206 -22.716610318120 -158.743371036138 -4.101984205088 160.264837854959
3.564406000000 -10.796851589431 -143.261610392788 -21.694138379459 -165.743055252199 -22.863155083613 -159.606145767249 -4.122518837107 159.109087899141
3.576404000000 -10.692780873281 -144.465255550280 -22.474729309094 -167.625252276202 -23.067467981954 -158.556457522137 -4.162211478160 157.883103294978
3.588402000000 -10.657073511966 -145.276554161534 -23.237329976671 -164.385753410605 -23.104916550473 -155.926178487673 -4.200600688831 156.650457833023
3.600400000000 -10.681159299175 -146.174538079987 -23.403080727473 -157.867795371457 -22.861092109794 -153.209604268056 -4.236447129715 155.227489751077
3.612398000000 -10.736478897865 -147.366403984899 -22.779618968078 -152.288333223166 -22.382275766267 -151.869830452989 -4.256490138762 153.883363359366
3.624396000000 -10.802141806837 -148.868347251579 -21.782269256182 -149.870537470848 -21.891946643110 -152.442522053174 -4.293450289847 152.578779574701
3.636394000000 -10.804422467394 -150.851786563064 -20.851440829197 -151.882665433980 -21.484630579444 -154.308870988642 -4.334420631094 151.488748101616
3.648392000000 -10.748378052059 -152.534986666648 -20.292847713171 -157.180867109827 -21.377535710128 -156.663538074142 -4.316648225136 150.065729373701
3.660390000000 -10.696474101737 -154.037144755253 -20.397781551751 -163.273045201667 -21.459539075711 -158.152480180335 -4.324613324164 148.981978871825
3.672388000000 -10.608767502017 -155.313380635648 -21.045854638162 -166.112963405707 -21.670195154064 -158.188503239746 -4.354486693927 147.884959152499
3.684386000000 -10.588356974415 -156.037714743142 -21.750645870632 -164.563403435214 -21.732268988750 -156.333296210681 -4.404122174073 146.710935069383
3.696384000000 -10.609660970150 -156.675638819394 -21.985015587522 -159.278420582798 -21.542537267508 -154.281886460684 -4.457100560122 145.284592355809
3.708382000000 -10.710379954103 -157.706631120305 -21.512678669530 -154.157734102384 -21.191775851495 -153.097370751666 -4.521309711252 143.947642351166
3.720380000000 -10.795735399840 -159.206011206935 -20.628044964807 -151.793475017060 -20.709806997791 -153.558353978264 -4.560951845327 142.632114444394
3.732378000000 -10.890884932478 -161.099567214167 -19.694797157544 -153.446282923405 -20.329304605610 -155.255107497581 -4.600787058195 141.293755579077
3.744376000000 -10.873557799406 -163.212070756432 -19.085961080933 -158.658264740399 -20.159160389660 -157.699370004785 -4.604944410122 139.995656262918
3.756374000000 -10.823199639933 -165.088990840616 -19.107229811075 -164.738723436071 -20.176595729635 -159.335476895701 -4.621376352207 138.800163524922
3.768372000000 -10.751117332205 -166.886037954764 -19.642708925493 -168.454239738716 -20.283975659076 -159.652433898451 -4.645262963424 137.575532650448
3.780370000000 -10.692359141424 -167.903910276373 -20.324165000502 -167.745669878771 -20.308287613268 -158.394414824924 -4.722878590939 136.471876709799
3.792368000000 -10.678125162693 -168.628733773079 -20.652991600202 -163.966052663547 -20.093067765415 -157.166317501581 -4.783611130412 135.034748275061
3.804366000000 -10.710994063197 -169.463674732406 -20.362217614205 -159.267796787476 -19.714160182003 -156.533389999258 -4.857968664428 133.541092199307
3.816364000000 -10.805148837831 -170.589281171430 -19.577574660059 -156.738182352255 -19.299697067555 -157.477178772180 -4.910787549657 132.087988814622
3.828362000000 -10.883648206455 -171.921840718662 -18.680164526465 -157.855282424864 -18.953581475957 -159.772142251351 -4.942347980347 130.700483400678
3.840360000000 -10.940903168228 -173.757607126565 -18.092948350633 -162.292163246390 -18.812998485249 -162.478731788904 -4.971175948258 129.255907012566
3.852358000000 -10.961902200994 -175.616778568214 -18.026771754792 -168.139577672755 -18.894046809367 -164.441880589851 -4.980578793137 127.840627142176
3.864356000000 -10.955867585044 -177.536614987513 -18.451231917670 -172.121661987083 -19.052641214105 -165.045401504354 -5.036423829938 126.735805367143
3.876354000000 -10.943549798038 -179.011115493529 -19.040424861860 -172.457665944218 -19.094399295315 -164.316077802526 -5.086622139515 125.496167279129
3.888352000000 -10.918193557576 179.751366546916 -19.396005466498 -169.696110195749 -18.935694268052 -163.277111606232 -5.159560221373 124.052234539634
3.900350000000 -10.948012829140 178.664235026163 -19.242771943190 -165.888243374684 -18.594385388474 -162.481867742837 -5.221008144242 122.431201808081
3.912348000000 -10.988218089210 177.446957908204 -18.593864266219 -163.731182293673 -18.180670405952 -163.300101885262 -5.275521210771 120.972730126014
3.924346000000 -11.053186758537 176.074935013564 -17.773660728930 -164.552653196503 -17.885908754110 -165.772212015977 -5.309210787433 119.691356400146
3.936344000000 -11.083704810023 174.282997683751 -17.200149000476 -168.639474972444 -17.771490927442 -168.485051850150 -5.346714644750 118.014070787789
3.948342000000 -11.101169899410 172.569588259144 -17.142339864471 -173.919734733937 -17.850187104979 -170.804375728888 -5.369031523181 116.572505630729
3.960340000000 -11.108347027019 170.541115440494 -17.508403618442 -177.906242569768 -18.023388657364 -171.809121614321 -5.399219169222 115.299159790271
3.972338000000 -11.087602048405 169.220332268525 -18.033552216388 -178.854725497064 -18.070391047814 -171.524975181682 -5.446437972959 114.169861748721
3.984336000000 -11.082661318151 167.992924355453 -18.406505721105 -176.595645136114 -17.944107178919 -170.446719529926 -5.522854086825 112.949708864404
3.996334000000 -11.103530851213 167.120950358310 -18.272340279247 -173.356176007434 -17.638567563671 -170.113702745564 -5.603351902215 111.472665827411
4.008332000000 -11.170730655496 165.955895322140 -17.706760182114 -171.502560144644 -17.270408956452 -170.905584152901 -5.668443545357 109.872081108574
4.020330000000 -11.269823019019 164.682168319154 -16.990547271685 -172.452982958173 -17.013885924085 -173.079006652107 -5.714678644801 108.399735716023
4.032328000000 -11.336267963154 163.107608299442 -16.469845022662 -176.397166529844 -16.947100991295 -176.060391411909 -5.767909905256 107.028350326759
4.044326000000 -11.396016261781 161.061731066164 -16.411144282187 178.644605349620 -17.074324569429 -178.223880950033 -5.817710498071 105.447661737406
4.056324000000 -11.441763509090 159.016001681048 -16.766503581413 174.819005337700 -17.241340486104 -179.097564159982 -5.845525916080 104.187360322568
4.068322000000 -11.464723860003 157.192923129817 -17.321799425106 173.724650154212 -17.325684028556 -178.685585570069 -5.909606218447 102.919889777809
4.080320000000 -11.438726970984 155.568934639056 -17.724654530084 175.710083610887 -17.203616359061 -177.680866010248 -5.996099000000 101.599762337873
4.092318000000 -11.421637317836 154.322680589894 -17.632929536482 178.796429647160 -16.865005087175 -177.239708149327 -6.095861269909 100.020388446418
4.104316000000 -11.459134200916 153.081452140022 -17.119823630012 -179.249491604254 -16.463517996674 -178.207296641285 -6.195902318101 98.196853000937
4.116314000000 -11.482704846978 151.793153759453 -16.417355674216 179.901763797046 -16.152400733762 179.512360813719 -6.254606665755 96.505320996040
4.128312000000 -11.551848627548 150.354899570633 -15.911179398490 176.126278679566 -16.049019880834 176.454782904872 -6.273931557123 94.744251186625
4.140310000000 -11.606181753102 148.616858916735 -15.835493585487 171.174263847779 -16.177115716951 173.819905766262 -6.287173526277 93.054402732785
4.152308000000 -11.669142473850 146.558989341127 -16.215218819557 166.935218474358 -16.392928570334 172.500439222147 -6.326843578286 91.698632113383
4.164306000000 -11.672125565932 145.047275930887 -16.768845912339 166.214193712709 -16.569883885674 172.615041853087 -6.376689804577 90.439464593187
4.176304000000 -11.657226905963 143.804083609735 -17.171647309941 168.122815002405 -16.527500439929 173.435982433369 -6.443629118884 89.233159521205
4.188302000000 -11.703703388695 142.879493737938 -17.150724339866 171.354204127929 -16.257695563499 173.951087673913 -6.528978121254 87.771435792731
4.200300000000 -11.817131829579 141.620059479705 -16.669520464033 173.684759061224 -15.925975584998 173.340780777977 -6.622011933939 86.151778369852
4.212298000000 -11.941144335197 139.794129337492 -15.980375113944 173.284564798742 -15.596404568172 171.487251967730 -6.679889863023 84.526785210018
4.224296000000 -12.026936708822 137.800102421754 -15.435089399625 170.004441452783 -15.479188052685 168.645185279939 -6.698771230402 82.862607895702
4.236294000000 -12.036365020790 135.348532159276 -15.286641734668 165.027085009183 -15.605269935867 166.231180212844 -6.721208844755 81.237729406289
4.248292000000 -12.050371080963 132.879534841121 -15.617784663067 160.703022355243 -15.839034044337 164.820387050883 -6.780327891146 79.667522359322
4.260290000000 -12.006636690675 130.878739259065 -16.130688374409 159.109572609749 -16.001546358138 164.780040038783 -6.796604382620 78.195923131206
4.272288000000 -11.944708919885 128.845770655811 -16.525370788202 160.269089179549 -15.974773483263 165.295315604580 -6.864719654164 76.885597918315
4.284286000000 -11.925082982864 127.542035924664 -16.571752175130 163.358110043933 -15.720697211336 165.416888490151 -6.963577614092 75.354314852582
4.296284000000 -11.909478083915 126.242876786906 -16.162899929473 165.478608473688 -15.363447785387 164.395722395510 -7.099400350911 73.587543873702
4.308282000000 -11.990392054052 125.065137019585 -15.515656421546 165.072972401145 -15.077283095121 162.021832539942 -7.198314171372 71.527666065236
4.320280000000 -12.075811293129 123.969451890795 -14.935813294431 161.655885630521 -14.969451453686 159.112860197823 -7.216164948825 69.572832587058
4.332278000000 -12.188363749796 121.780493650730 -14.726558444804 156.501659741701 -15.108594997713 156.595514702485 -7.222426004581 67.637646194918
4.344276000000 -12.308356252480 119.505193010567 -15.017984400487 150.468991878781 -15.398789055751 155.662107191615 -7.227445674930 65.832285426414
4.356274000000 -12.378711019187 116.798997450767 -15.615773591043 150.396470509030 -15.599576657662 155.414772924955 -7.242480701952 64.630359154990
4.368272000000 -12.266399818644 114.506927222359 -16.063403678235 151.996169592462 -15.635243654913 156.348312156352 -7.304644767903 63.461886288808
4.380270000000 -12.213428369980 112.956671514379 -16.180591185577 155.036504998864 -15.396122967477 157.070959617336 -7.372887493555 62.208066115972
4.392268000000 -12.174912470813 111.542484908476 -15.777485593469 157.545523454406 -15.029117402410 156.592602670578 -7.478386340124 60.815631826446
4.404266000000 -12.190925172080 110.404997526754 -15.065391752819 157.869387010201 -14.715551259283 154.504718539633 -7.590256936490 59.135602218561
4.416264000000 -12.247631199596 108.927237581340 -14.411598502300 154.975317722500 -14.566401308943 151.473555257477 -7.633269353523 57.253324449095
4.428262000000 -12.316475848996 106.790893077991 -14.111978176021 149.884255121602 -14.705117080005 148.592139435182 -7.639693130694 55.322967783914
4.440260000000 -12.367953412906 104.369332069347 -14.302970238941 144.983143962534 -14.980936301429 147.082603298271 -7.617377938087 53.381877116111
4.452258000000 -12.393976043955 101.758110821823 -14.875442548123 142.049202968769 -15.216363840062 147.172625570930 -7.612115376165 52.141408533739
4.464256000000 -12.388853707219 99.461882572686 -15.457784667747 142.200751744205 -15.221121796303 148.097759102419 -7.608185940889 51.058917003045
4.476254000000 -12.263932213672 97.934326494766 -15.679985308723 144.926848291681 -15.031047918375 149.168648177615 -7.665198419440 50.066027944050
4.488252000000 -12.188729445313 96.360507271405 -15.429418134724 147.758922603404 -14.695160334849 148.893738590638 -7.751989177966 48.822950859935
4.500250000000 -12.122265738914 94.845362343347 -14.841610979198 149.150906134628 -14.322638894618 146.774474680834 -7.842139120611 47.407433883102
4.512248000000 -12.160151113601 93.488041932012 -14.205600615710 146.636892128398 -14.232882474478 143.570385489826 -7.941981781343 45.694166814077
4.524246000000 -12.217310849684 91.447251104755 -13.829959937149 141.907331476810 -14.379903476324 140.466870394071 -7.971216147324 43.903538030163
4.536244000000 -12.279409705150 89.009344611082 -13.929607252877 136.622085760033 -14.696060016881 138.663454578344 -7.967915575523 42.006825936683
4.548242000000 -12.298157858065 86.361825050489 -14.476700643070 133.585328868003 -14.967746412069 138.931825414019 -7.973636788274 40.516622565576
4.560240000000 -12.180923032756 83.982952302111 -15.081242118727 133.171802087965 -15.035078426927 140.237180722073 -7.990744060188 39.384335909312
4.572238000000 -12.080540779535 82.471569884838 -15.406612249451 135.597750070564 -14.858083274139 141.625480894122 -8.030202406545 38.229924170142
4.584236000000 -11.937500845950 80.617485153511 -15.244608506176 138.773936382130 -14.443312603685 141.646991476829 -8.095063459685 37.015235818765
4.596234000000 -11.864158725629 78.994295135683 -14.765102833338 140.763480334726 -14.056700570619 139.780287156288 -8.203814582372 35.418822850269
4.608232000000 -11.815807966332 77.830448531129 -14.090157470692 139.128997135392 -13.808699002342 136.379873120894 -8.282782003033 33.860439921207
4.620230000000 -11.877288407171 76.002294692193 -13.598477504610 134.879490317212 -13.897033990498 133.007499158695 -8.303900181957 32.131276968730
4.632228000000 -11.875433744470 73.847767883905 -13.570999544049 129.891357090656 -14.222452975627 130.638399571151 -8.261614084677 30.251059514030
4.644226000000 -11.869585222129 71.548224735765 -14.067744804290 125.932606360743 -14.532814586525 130.756726070534 -8.256577242251 28.736824540926
4.656224000000 -11.774855032228 69.154747678349 -14.667845315872 124.897286751026 -14.704164621409 132.060179620953 -8.256136765667 27.363661190997
4.668222000000 -11.601103954303 67.223378193233 -15.067980422655 126.950609712365 -14.580012551696 133.485447729423 -8.267152771381 26.404734519739
4.680220000000 -11.461199368607 65.779393942345 -15.059851311040 130.458127158159 -14.200720183934 133.688778101653 -8.302544043372 25.160341617913
4.692218000000 -11.339426896812 64.482706134748 -14.629271017650 132.828698322196 -13.772327905443 131.945205005404 -8.344453678813 24.008269477060
4.704216000000 -11.284236254972 63.758608971977 -13.940989099463 132.147985783575 -13.512217118444 128.401425342702 -8.411717377310 22.430519634890
4.716214000000 -11.360835512980 62.311860782874 -13.342941779135 128.849258973240 -13.503992505409 124.694628343652 -8.441416336520 21.063436910116
4.728212000000 -11.358478230448 60.233196778808 -13.190365759401 123.775264767399 -13.759448846762 122.030602132412 -8.427290706651 19.506112761443
4.740210000000 -11.354163931484 57.720353777802 -13.493766235209 118.971679580892 -14.134371166172 121.474371941377 -8.382351959557 18.099477089641
4.752208000000 -11.237106843877 55.564212408283 -14.089516504298 117.208805225544 -14.375602361343 122.597881886911 -8.371481365518 16.992852195915
4.764206000000 -11.112167079623 53.108679147664 -14.609678893848 118.406760653974 -14.333779139886 124.616916727484 -8.425230750463 16.040605207098
4.776204000000 -10.884687672304 51.566899120256 -14.729201621684 121.528703940492 -13.962800810588 125.748836462388 -8.465869947064 15.214918869582
4.788202000000 -10.666463827141 50.294803176678 -14.410803671088 124.218733911886 -13.487840033901 125.101599039459 -8.507887082269 14.198011126857
4.800200000000 -10.550864197559 49.412309930269 -13.751587018293 124.477347217453 -13.165586208488 121.694879661701 -8.565689969399 12.794350760238
4.812198000000 -10.570248884511 48.605989241619 -13.066475443996 121.740204275107 -13.045853661608 117.445873813087 -8.642727812787 11.686398625024
4.824196000000 -10.563294666959 47.449535602263 -12.741492652025 116.466519041874 -13.382115267890 113.550220276712 -8.653841609631 10.305661591220
4.836194000000 -10.525161914255 45.478226686229 -12.901424694357 110.986774010358 -13.864478688567 112.021038218508 -8.625303452401 8.798211380907
4.848192000000 -10.524597984538 43.720654812399 -13.455465921120 107.811526934283 -14.212370069884 113.191089206794 -8.619767531935 7.322779620884
4.860190000000 -10.486289604699 41.498909703181 -14.098473663124 107.932914621861 -14.252227652780 115.699371918659 -8.681452004389 6.378583812292
4.872188000000 -10.350676861023 39.698747263372 -14.475605536595 110.586581029162 -13.873902231419 117.768271407052 -8.666297419075 5.433339059816
4.884186000000 -10.163722046096 38.084920339311 -14.368244509929 113.743178783433 -13.328193630057 117.496533760250 -8.695713018092 4.171096142214
4.896184000000 -9.989265729382 36.870300157023 -13.817389692070 115.616963306236 -12.859401088665 114.846064239000 -8.714854219979 2.908551597069
4.908182000000 -9.935790417202 35.781967728822 -13.107489538222 114.392859743327 -12.711763353304 110.398058247922 -8.756203110517 1.595930894094
4.920180000000 -9.868553942834 34.537937944524 -12.661540192020 109.893158652897 -12.952106031794 105.907492081719 -8.760368909665 0.506167025044
4.932178000000 -9.789435654153 32.994309148307 -12.595620075569 104.289860419536 -13.475227686175 103.629059744273 -8.751898198539 -0.805455678225
4.944176000000 -9.718122748080 31.313560001250 -13.039803293192 100.173030182481 -13.924552262354 104.454120987601 -8.737491378016 -2.251970920351
4.956174000000 -9.648570666412 29.682269276176 -13.673033601255 99.034656886125 -14.055050166237 106.998729034450 -8.742153381942 -3.600296685104
4.968172000000 -9.533586560596 28.503422509316 -14.131948788952 101.020084614007 -13.728334186730 109.558579481355 -8.733455240121 -4.369459776019
4.980170000000 -9.377149791464 27.099211735189 -14.179194627565 104.520683812358 -13.148336621223 109.966059383665 -8.711573148447 -5.229489847356
4.992168000000 -9.232218313341 25.966687819885 -13.753611902684 107.179619609375 -12.558568100677 107.583681735627 -8.687433513267 -6.640809968813
5.004166000000 -9.153131062625 24.901878515131 -13.084420804463 106.836147730468 -12.275194612776 103.221436679424 -8.709315981600 -7.169443603096
5.016164000000 -9.129804438640 23.710767487428 -12.491523036340 103.355255407881 -12.482265283744 97.952708862621 -8.749498745558 -7.954137803698
5.028162000000 -9.066817932385 22.835185582256 -12.254516073704 97.842186225451 -12.996248427657 94.662339741516 -8.753072781625 -8.608446173023
5.040160000000 -8.996127460870 21.218058528090 -12.510896278356 92.375789233926 -13.568673827732 94.645487892257 -8.752458632348 -9.869862389773
5.052158000000 -8.901646787913 19.648304525965 -13.074004038639 89.545369033124 -13.910815379869 97.251431352971 -8.805827760420 -11.128309320739
5.064156000000 -8.835632862404 18.306202301177 -13.658050185807 90.424197030809 -13.698307155051 100.588102592274 -8.821704320966 -12.082509980289
5.076154000000 -8.684777867844 17.250974004826 -13.978452299423 93.395215301339 -13.129795514055 101.958933708144 -8.810150445211 -12.914640442310
5.088152000000 -8.550006291400 16.129262296649 -13.816604641150 96.549234554210 -12.436077849542 100.414856939560 -8.781472693514 -13.730920519771
5.100150000000 -8.450568454074 15.029317442901 -13.257124328130 98.007610182509 -11.963937208984 95.880992723014 -8.756112041974 -14.552403279646
5.112148000000 -8.430626444007 13.945427573576 -12.604137196848 96.196736148536 -12.023930023531 90.367023615685 -8.799145378753 -15.074556341979
5.124146000000 -8.375405270852 13.132522060196 -12.195300281137 91.440726548103 -12.506403838942 85.932784140889 -8.852367856292 -15.604756767746
5.136144000000 -8.318076693172 12.107859525613 -12.219576911169 86.128879805166 -13.205501914772 84.683063107631 -8.891621878239 -16.492107279075
5.148142000000 -8.254599331317 10.513149474751 -12.626187748049 82.186951995111 -13.743948248182 87.112484164809 -8.975491867066 -18.093159897854
5.160140000000 -8.213699649909 9.088492980798 -13.217463487948 81.570430897230 -13.723964507909 90.959903589692 -9.046909843290 -19.419530391678
5.172138000000 -8.124215239114 7.802524316990 -13.640245155353 83.759465048775 -13.156367905504 93.978804865998 -9.030906180260 -20.618756876767
5.184136000000 -7.958359798475 6.504994682810 -13.690319471190 86.919950985081 -12.382756657288 93.586336914177 -8.932706335229 -21.874724426498
5.196134000000 -7.778250710422 5.386900402129 -13.277160797570 89.117071338022 -11.702829870658 89.744167034505 -8.884937474876 -22.622702215321
5.208132000000 -7.733735955144 4.506318193868 -12.609206462808 88.554048652469 -11.492155724681 83.530807361062 -8.838281773594 -23.506545250962
5.220130000000 -7.704814706073 3.684021844060 -12.076776395135 84.939462622391 -11.896333884313 78.011785703523 -8.853951282579 -23.588611715726
5.232128000000 -7.625799625117 3.151392651235 -11.897102045481 79.786413450806 -12.614623067306 75.330270277844 -8.891230946696 -23.867309107547
5.244126000000 -7.578010767896 1.827507589838 -12.188588219693 74.863507610208 -13.345027373515 76.170684231498 -8.972365052160 -25.014757037561
5.256124000000 -7.553373382624 0.327340647461 -12.777362035346 72.787580235306 -13.577535052094 80.002299760527 -9.032684669021 -26.596112991687
5.268122000000 -7.463677911235 -0.980811854472 -13.349763492911 73.777666059105 -13.246601361803 84.220545320435 -9.021764684539 -27.906518560038
5.280120000000 -7.301459456136 -2.099107595853 -13.559387246623 76.895768242210 -12.410951427340 85.202379503369 -8.928808164296 -28.990472090157
5.292118000000 -7.169538034564 -3.124801266287 -13.333106617036 80.032048541041 -11.611905739677 81.949399593603 -8.778093307476 -29.832049719889
5.304116000000 -7.124985753100 -3.964268911369 -12.699304995221 81.084349589569 -11.220759906583 75.994878518282 -8.673575862055 -30.438278662488
5.316114000000 -7.154210689504 -4.904557247237 -12.008534700486 78.830421535261 -11.448826870763 69.113544084101 -8.667419564695 -30.287478993391
5.328112000000 -7.161355326169 -5.582099601806 -11.564368203686 73.872804732078 -12.161655649034 65.067040238256 -8.675308698262 -29.927525549555
5.340110000000 -7.068953078426 -7.050946280147 -11.613824521392 68.187364675447 -12.984292090907 65.054303023476 -8.759311415338 -30.067780743392
5.352108000000 -6.978695001473 -8.417572221004 -12.098538857964 64.293054294527 -13.549156845910 68.377476395577 -8.852973546563 -31.461423967555
5.364106000000 -6.844520911363 -9.643719094605 -12.700685795112 63.239311487214 -13.427974322783 73.553562645008 -8.907193522698 -32.727395041449
5.376104000000 -6.784965927057 -9.946989630901 -13.181008389615 65.325809074424 -12.671327872230 76.567112585229 -8.897899118965 -33.670792827848
5.388102000000 -6.685382130010 -10.532201539657 -13.288746106791 68.084758530031 -11.735675904809 75.665471380070 -8.773112543831 -34.464543466655
5.400100000000 -6.613900804880 -11.620761273604 -12.899940314350 70.541650720686 -11.044155643810 70.433358954287 -8.666590541417 -34.967640314409
5.412098000000 -6.556387612417 -12.905444394660 -12.224399471476 70.437892457282 -10.974802894628 63.224212578471 -8.681934067119 -35.193082647371
5.424096000000 -6.482358305295 -13.298386300559 -11.689011426834 67.123309128851 -11.525899115161 57.780331557030 -8.665784670362 -35.152336307452
5.436094000000 -6.354305922689 -13.317708429860 -11.494016486520 62.401061464975 -12.425690101980 55.663247165728 -8.732474045376 -35.113379179474
5.448092000000 -6.339049888887 -13.911771690664 -11.759747220670 57.175694057686 -13.193645074594 57.506816845678 -8.829163639905 -36.154575250210
5.460090000000 -6.435039471762 -15.086947622085 -12.279520667887 54.269627051434 -13.417444556230 62.482095570369 -8.901407389218 -37.452715216716
5.472088000000 -6.403601129988 -16.276633675883 -12.852680454382 54.709605432629 -12.882856795177 67.051758657609 -8.903848867619 -38.520064414340
5.484086000000 -6.301621364865 -17.662343303055 -13.153361636568 57.157542882823 -11.851109088092 67.788864213425 -8.828001599957 -39.761658111214
5.496084000000 -6.096226237737 -18.862971521347 -13.015281172034 60.407617029450 -10.910542842100 63.550614832403 -8.710763748256 -40.731932958818
5.508082000000 -6.017679883345 -19.943320606282 -12.504190895282 61.669219953182 -10.613714373741 55.995545172945 -8.646947885143 -41.352616530937
5.520080000000 -5.922900329879 -20.062533516479 -11.895464351406 59.851392319959 -11.003440571093 48.793186538191 -8.572855824152 -41.314345387786
5.532078000000 -5.863783237141 -19.496874333188 -11.549280355393 55.445978411213 -11.863239247724 44.998215401402 -8.544851940548 -40.699383002748
5.544076000000 -5.849695592068 -19.991082242962 -11.563995491834 50.185463030623 -12.811110674061 45.265062129306 -8.667845070569 -40.851112480955
5.556074000000 -5.927948969587 -21.022427185693 -11.933788488707 46.041096056069 -13.463112939051 49.520416943897 -8.818037837313 -41.947659452151
5.568072000000 -5.988474046656 -22.560373681527 -12.454685482782 44.672932966911 -13.357734625291 55.400929546231 -8.916615570848 -43.296423043406
5.580070000000 -5.928706280546 -23.913912329758 -12.909435699132 46.158764643581 -12.468441831947 58.822882039757 -8.860677927366 -44.508840077973
5.592068000000 -5.774301002393 -25.211288042061 -13.013003520060 49.245282949661 -11.356905216783 56.532196557760 -8.766084178600 -45.807799079279
5.604066000000 -5.659933917652 -26.430970329679 -12.685984186774 51.743880677453 -10.642546584923 49.972037585001 -8.575150259421 -46.794412437025
5.616064000000 -5.542775686848 -27.203585881266 -12.097289979579 51.621007955809 -10.680454015763 41.885009312449 -8.446385236189 -46.684212951193
5.628062000000 -5.449274324524 -26.860075635608 -11.550890785263 48.678268611816 -11.376224843763 36.227972168052 -8.403671720288 -45.534589872483
5.640060000000 -5.381846833291 -26.621508011228 -11.414617782764 44.045895137632 -12.387136039376 34.372100972259 -8.444593350941 -44.817054926594
5.652058000000 -5.456109663884 -27.519627654175 -11.616991776159 38.635119876098 -13.260834889681 37.155528590535 -8.670229867042 -45.580216861827
5.664056000000 -5.490253448589 -28.295493842214 -12.146761335964 36.014970777884 -13.553654123393 43.020217399754 -8.764100389738 -46.861386471268
5.676054000000 -5.554563248466 -29.277015534311 -12.647092533750 35.972550606455 -13.027810125947 48.332798528924 -8.810971759328 -48.416910416453
5.688052000000 -5.457050823944 -30.423884937469 -12.959277208748 38.449142428881 -11.949901733961 48.993683919353 -8.739425466658 -49.531192555278
5.700050000000 -5.355392323873 -31.606286144399 -12.864841258733 41.540594696030 -10.914000088495 44.247124692368 -8.511306245377 -50.819286781918
5.712048000000 -5.316522042144 -33.038330180071 -12.365013122300 43.156058332480 -10.565955380835 35.782450482449 -8.368401858654 -51.195993673357
5.724046000000 -5.257876154471 -33.281328458283 -11.759833403820 41.788064576975 -11.040559403688 28.783517427701 -8.266878954774 -50.433180449850
5.736044000000 -5.214708266476 -33.260169172460 -11.332094137700 37.617348464781 -11.919971187888 24.859945249474 -8.291852763513 -49.129884693388
5.748042000000 -5.173672113756 -33.496487670470 -11.345027034651 32.029580852134 -12.869833733361 25.688259120457 -8.447868177331 -49.099696425158
5.760040000000 -5.121092407666 -34.762856315869 -11.693716436819 27.616454885951 -13.507440980140 30.492632840829 -8.637608236068 -50.154461961071
5.772038000000 -5.144162377452 -35.143670758785 -12.225632321403 25.163724149605 -13.375224309833 37.177509762248 -8.794844449160 -51.541845958952
5.784036000000 -5.085085721308 -36.378106043399 -12.739292694111 26.694735159142 -12.465123860655 40.461195342096 -8.756064296695 -53.473254110556
5.796034000000 -5.023241703005 -36.942696465746 -12.942085535522 30.046118578561 -11.284030875493 38.018108548150 -8.531998591844 -55.293407303893
5.808032000000 -4.955631834421 -38.050478976498 -12.691612936676 33.025493851178 -10.595138308494 30.692335340433 -8.312326217832 -55.698139452809
5.820030000000 -4.910822390996 -38.402392039091 -12.106334559776 33.588518501501 -10.744379453000 22.451158123822 -8.146765372241 -55.354139568661
5.832028000000 -4.914751098852 -38.191056587700 -11.565114938230 30.925674947369 -11.462384289672 16.682994454130 -8.037625928946 -53.889360148271
5.844026000000 -4.912195364848 -38.199049789522 -11.329315596087 25.972386858222 -12.437224582237 15.268415307990 -8.072197039574 -52.775917249150
5.856024000000 -4.872297435791 -39.035155007142 -11.490231061194 20.851352982390 -13.285414928975 17.733102745090 -8.246377808288 -52.651416410996
5.868022000000 -4.945698733382 -40.348745779996 -12.001234481526 17.305197806514 -13.576607880922 23.589799343191 -8.463753136844 -53.786406929149
5.880020000000 -4.845124922508 -41.130811605491 -12.491180384776 16.639569480377 -13.094701534430 28.742562139455 -8.617751150850 -55.216692935807
5.892018000000 -4.783091223624 -41.664980898680 -12.836315898198 18.550336160790 -12.019842810542 29.736064655754 -8.495448860840 -57.056702930362
5.904016000000 -4.715082245398 -42.453195015961 -12.889964017539 22.008145522352 -11.109028345395 24.754537799057 -8.317334002262 -58.380954847885
5.916014000000 -4.677106266686 -43.166573798233 -12.505470328058 23.887922108512 -10.887336871739 16.902987579476 -8.114450003813 -58.745472598692
5.928012000000 -4.685651088758 -42.922180294826 -11.900747452651 22.920608109018 -11.399966022511 10.512968169593 -7.948491731049 -57.723103894325
5.940010000000 -4.678055851406 -42.965083921447 -11.432850186093 18.965100878571 -12.265235320477 7.170144987155 -7.901182070674 -56.152330411366
5.952008000000 -4.693957210353 -43.863882307972 -11.373406609732 13.368519971208 -13.145503284786 8.418159425268 -8.052366189842 -55.574002581260
5.964006000000 -4.751473554584 -44.921944045794 -11.719799444773 9.123675812759 -13.553165217764 13.070948907447 -8.282258210482 -56.359007394673
5.976004000000 -4.660856397029 -45.548452413589 -12.207744739196 7.143974127088 -13.275951254865 18.774700182560 -8.467495908922 -57.414960647606
5.988002000000 -4.605431031093 -46.513496598815 -12.709026488542 7.581668460540 -12.304705325759 20.677404229416 -8.514692896769 -59.305989084857
6.000000000000 -4.511286172129 -47.059409618125 -12.991559578439 10.187521485115 -11.279046962959 16.978805897747 -8.364534874549 -60.729534775689
